18
Coordinates from ORCA-job orca E -1967.122110796821
  C          -1.65977616536483     -0.82579610011173     -1.43372941609532
  C          -0.64124855440956      0.11027503305256     -1.31242504670241
  C           0.12034682235458      0.17244854685024     -0.14387111391703
  C          -0.13952872021734     -0.72368820818351      0.89646596498138
  C          -1.15668973312437     -1.65838370559349      0.77150726698934
  C          -1.91938665975395     -1.71111520087499     -0.39280899766631
  H          -2.25076906710684     -0.86247668257538     -2.33949592676408
  H          -2.71118763263503     -2.44276531238416     -0.48785379135661
  H          -0.43721106150081      0.79940642364647     -2.12270051247790
  H           0.46033865311019     -0.71135962448630      1.79879396033634
  H          -1.35088385064466     -2.35166345843239      1.57939255937268
  C           1.16760004962475      1.20831948968392     -0.04496733024738
  N           1.40695278956469      1.81501965909409      1.20888722062068
  H           0.85691298656106      1.48641454629496      1.99033807522004
  H           1.54182441017703      2.81661470912493      1.19891376831927
  H           1.19650823938905      1.90664815104490     -0.86937207729882
  H           2.47710462060892      0.29894288991255     -0.83374358116510
  Cu          3.03909287336712      0.67315884393734      0.53666897785123
