18
Properties=species:S:1:pos:R:3 energy=-1967.196362870513 pbc="F F F"
C       -1.92075700      -0.56085600      -1.00279900
C       -0.82501000       0.29236400      -1.10877300
C        0.33599900       0.03932900      -0.38500000
C        0.39060100      -1.09386100       0.44347200
C       -0.71007300      -1.94033200       0.55634600
C       -1.86956500      -1.66940800      -0.16466600
H       -2.81845000      -0.35424000      -1.57134600
H       -2.72475100      -2.32750600      -0.08238800
H       -0.87525500       1.16212900      -1.75258500
H        1.31877100      -1.34559100       0.95045500
H       -0.65259700      -2.81695500       1.18855200
C        1.48363800       1.01507800      -0.37329300
N        1.38093500       1.86137600       0.85776900
H        0.76118300       2.64894400       0.68357000
H        2.28599100       2.25493700       1.09913000
H        1.48081200       1.63994300      -1.26671200
H        2.43423000       0.48606100      -0.32176600
Cu       0.52429900       0.70858800       2.25003300
18
Properties=species:S:1:pos:R:3 energy=-1967.196361786246 pbc="F F F"
C       -1.92078900      -0.56554800      -1.00998400
C       -0.82679000       0.29045800      -1.11219400
C        0.33161000       0.04201500      -0.38273900
C        0.38494600      -1.08898500       0.44851000
C       -0.71416700      -1.93761400       0.55864600
C       -1.87080000      -1.67184700      -0.16889700
H       -2.81599400      -0.36299300      -1.58395300
H       -2.72428600      -2.33259700      -0.09002100
H       -0.87609700       1.15806200      -1.75896800
H        1.31145100      -1.33842400       0.95995200
H       -0.65780800      -2.81234400       1.19359300
C        1.47928900       1.01763200      -0.37382000
N        1.38843400       1.85871400       0.86166000
H        0.76502800       2.64551900       0.69706100
H        2.29539500       2.25383900       1.09333600
H        1.46892200       1.64708600      -1.26399700
H        2.43038500       0.48836700      -0.33366800
Cu       0.55127100       0.70866100       2.26548400
18
Properties=species:S:1:pos:R:3 energy=-1967.196326886567 pbc="F F F"
C       -1.92064800      -0.56975300      -1.01685900
C       -0.82827200       0.28877300      -1.11539500
C        0.32757600       0.04431500      -0.38054600
C        0.37928500      -1.08452300       0.45327000
C       -0.71852400      -1.93497000       0.56091700
C       -1.87217400      -1.67404200      -0.17328000
H       -2.81313400      -0.37121000      -1.59653100
H       -2.72419200      -2.33706600      -0.09756600
H       -0.87653200       1.15470500      -1.76448000
H        1.30414600      -1.33189100       0.96902800
H       -0.66365100      -2.80767600       1.19867100
C        1.47531600       1.01978900      -0.37417200
N        1.39505700       1.85637900       0.86498500
H        0.76618600       2.64072900       0.70980800
H        2.30289300       2.25540100       1.08691000
H        1.45821500       1.65303500      -1.26160700
H        2.42684800       0.49048300      -0.34407600
Cu       0.58160500       0.70752200       2.28092400
18
Properties=species:S:1:pos:R:3 energy=-1967.196296811563 pbc="F F F"
C       -1.92040800      -0.57374700      -1.02383200
C       -0.82958500       0.28727900      -1.11826400
C        0.32365600       0.04638200      -0.37838500
C        0.37366100      -1.08063300       0.45763200
C       -0.72309700      -1.93244800       0.56303100
C       -1.87361200      -1.67604800      -0.17748800
H       -2.80986800      -0.37921100      -1.60926500
H       -2.72434300      -2.34117300      -0.10493800
H       -0.87675900       1.15186400      -1.76918100
H        1.29700500      -1.32639300       0.97705400
H       -0.66984600      -2.80307100       1.20389300
C        1.47160000       1.02170500      -0.37424700
N        1.40111600       1.85441200       0.86806400
H        0.76601300       2.63567700       0.72176700
H        2.30919000       2.25836700       1.07974800
H        1.44820700       1.65830200      -1.25909800
H        2.42336000       0.49246400      -0.35317600
Cu       0.61371100       0.70627400       2.29668600
18
Properties=species:S:1:pos:R:3 energy=-1967.196252837889 pbc="F F F"
C       -1.92030800      -0.57758200      -1.03059300
C       -0.83089900       0.28567900      -1.12156300
C        0.31974600       0.04836200      -0.37663600
C        0.36802900      -1.07680500       0.46138900
C       -0.72748000      -1.93012600       0.56464400
C       -1.87516400      -1.67792400      -0.18168500
H       -2.80713300      -0.38659500      -1.62113700
H       -2.72466400      -2.34492800      -0.11185600
H       -0.87692200       1.14866100      -1.77467400
H        1.28977700      -1.32069600       0.98473400
H       -0.67558700      -2.79883500       1.20825000
C        1.46794000       1.02330100      -0.37407100
N        1.40638400       1.85243400       0.87102700
H        0.76499500       2.63018600       0.73321200
H        2.31440400       2.26182800       1.07257500
H        1.43956900       1.66316700      -1.25648200
H        2.41980900       0.49390900      -0.36090800
Cu       0.64750300       0.70596300       2.31377600
18
Properties=species:S:1:pos:R:3 energy=-1967.196215230692 pbc="F F F"
C       -1.92022500      -0.58103500      -1.03683400
C       -0.83211600       0.28405300      -1.12486300
C        0.31608500       0.05011600      -0.37503500
C        0.36279000      -1.07331200       0.46482300
C       -0.73153600      -1.92810800       0.56599800
C       -1.87663400      -1.67956800      -0.18561500
H       -2.80469100      -0.39322400      -1.63192100
H       -2.72502100      -2.34830600      -0.11825100
H       -0.87692100       1.14555300      -1.78009800
H        1.28292100      -1.31522700       0.99204800
H       -0.68088200      -2.79506700       1.21184300
C        1.46435100       1.02479300      -0.37379400
N        1.41113800       1.85047200       0.87381500
H        0.76367900       2.62451300       0.74390700
H        2.31892100       2.26546600       1.06579800
H        1.43184600       1.66746000      -1.25394500
H        2.41631400       0.49514800      -0.36779100
Cu       0.67998000       0.70627400       2.32991600
18
Properties=species:S:1:pos:R:3 energy=-1967.196155524926 pbc="F F F"
C       -1.91854000      -0.58457700      -1.04349300
C       -0.83228800       0.28312700      -1.12558500
C        0.31335300       0.05091000      -0.37184300
C        0.35891600      -1.07156100       0.46912100
C       -0.73567300      -1.92628000       0.56871800
C       -1.87723900      -1.68107400      -0.18933800
H       -2.79928400      -0.40030300      -1.64517400
H       -2.72507100      -2.35067000      -0.12416300
H       -0.87560600       1.14631600      -1.77889400
H        1.27800400      -1.31315500       0.99837200
H       -0.68785600      -2.79059900       1.21836900
C        1.45992800       1.02663700      -0.37368100
N        1.41530000       1.84974600       0.87550200
H        0.76442800       2.62217400       0.75318700
H        2.32407500       2.26734600       1.05773600
H        1.41931100       1.67105500      -1.25162000
H        2.41320000       0.49819000      -0.37586200
Cu       0.70504300       0.70271900       2.33864700
18
Properties=species:S:1:pos:R:3 energy=-1967.196165285732 pbc="F F F"
C       -1.91976400      -0.58752900      -1.04870800
C       -0.83396600       0.28099100      -1.13038200
C        0.30952700       0.05390400      -0.37118100
C        0.35298900      -1.06629200       0.47278300
C       -0.73974200      -1.92377900       0.56961500
C       -1.87949400      -1.68236600      -0.19254800
H       -2.79945000      -0.40599900      -1.65300000
H       -2.72569800      -2.35460000      -0.13082300
H       -0.87617500       1.13937900      -1.79002700
H        1.26989300      -1.30517000       1.00735000
H       -0.69228000      -2.78769600       1.21980800
C        1.45807000       1.02863900      -0.37405900
N        1.42123300       1.84717100       0.87854500
H        0.76060500       2.61246700       0.76529700
H        2.32764800       2.27397100       1.05382900
H        1.41574300       1.67621800      -1.25011500
H        2.41003000       0.49844300      -0.38226700
Cu       0.74082800       0.70225000       2.35588200
18
Properties=species:S:1:pos:R:3 energy=-1967.196056366952 pbc="F F F"
C       -1.91852700      -0.59082400      -1.05502300
C       -0.83425300       0.27991500      -1.13218300
C        0.30660100       0.05513400      -0.36853200
C        0.34825300      -1.06314400       0.47768400
C       -0.74412800      -1.92105900       0.57219500
C       -1.88027400      -1.68392300      -0.19664000
H       -2.79468400      -0.41278000      -1.66525100
H       -2.72582200      -2.35706100      -0.13659400
H       -0.87497100       1.13822700      -1.79203400
H        1.26405000      -1.30184900       1.01475900
H       -0.69876200      -2.78266500       1.22546700
C        1.45411400       1.03019200      -0.37369700
N        1.42551400       1.84557100       0.88090900
H        0.75965900       2.60784000       0.77649500
H        2.33141200       2.27782100       1.04420600
H        1.40547800       1.68058500      -1.24682100
H        2.40688500       0.50072700      -0.39023000
Cu       0.76945700       0.69729100       2.36528900
18
Properties=species:S:1:pos:R:3 energy=-1967.195975912148 pbc="F F F"
C       -1.91947600      -0.59375500      -1.06064500
C       -0.83539000       0.27779700      -1.13830500
C        0.30200400       0.05855700      -0.36818700
C        0.34227900      -1.05671900       0.48131700
C       -0.74725600      -1.91772400       0.57269300
C       -1.88190400      -1.68463100      -0.19977500
H       -2.79510800      -0.41694700      -1.67222400
H       -2.72571600      -2.36000400      -0.14251500
H       -0.87430300       1.13124300      -1.80413500
H        1.25501600      -1.29095300       1.02630000
H       -0.70195600      -2.77884200       1.22701700
C        1.45243800       1.03072300      -0.37332500
N        1.42978600       1.84174300       0.88394500
H        0.75404000       2.59685700       0.78968500
H        2.33219100       2.28342100       1.03667300
H        1.40226500       1.68617000      -1.24402000
H        2.40343300       0.49996100      -0.39584300
Cu       0.80765600       0.69310400       2.38134200
18
Properties=species:S:1:pos:R:3 energy=-1967.195886272987 pbc="F F F"
C       -1.91912200      -0.59658500      -1.06646200
C       -0.83588700       0.27626900      -1.14157000
C        0.29880800       0.06024200      -0.36655600
C        0.33709800      -1.05308200       0.48511200
C       -0.75137500      -1.91543100       0.57410300
C       -1.88330100      -1.68574300      -0.20342400
H       -2.79256900      -0.42217300      -1.68188700
H       -2.72617900      -2.36245100      -0.14846700
H       -0.87321700       1.12810400      -1.80953300
H        1.24762900      -1.28499600       1.03516300
H       -0.70759700      -2.77502400       1.23055600
C        1.44962700       1.03190000      -0.37299000
N        1.43367200       1.83983700       0.88613900
H        0.74995100       2.58885200       0.80062900
H        2.33363200       2.28974300       1.02912100
H        1.39575700       1.68984500      -1.24165700
H        2.40038500       0.50108400      -0.40152700
Cu       0.84268600       0.68960900       2.39325000
18
Properties=species:S:1:pos:R:3 energy=-1967.195790543881 pbc="F F F"
C       -1.91891300      -0.59938900      -1.07243400
C       -0.83646500       0.27470500      -1.14476800
C        0.29565000       0.06183700      -0.36492300
C        0.33166800      -1.04984500       0.48844300
C       -0.75577000      -1.91348200       0.57511700
C       -1.88507500      -1.68683500      -0.20719000
H       -2.79018200      -0.42729300      -1.69168400
H       -2.72699700      -2.36500000      -0.15480600
H       -0.87216600       1.12460700      -1.81520900
H        1.23972800      -1.27953200       1.04368300
H       -0.71363800      -2.77153300       1.23377400
C        1.44711600       1.03290500      -0.37248600
N        1.43746800       1.83813700       0.88829000
H        0.74484200       2.58002200       0.81176700
H        2.33430000       2.29747200       1.02107300
H        1.38984200       1.69339300      -1.23910900
H        2.39753900       0.50188900      -0.40649300
Cu       0.88105300       0.68794300       2.40695400
18
Properties=species:S:1:pos:R:3 energy=-1967.195707892455 pbc="F F F"
C       -1.91848800      -0.60173400      -1.07802600
C       -0.83683500       0.27353900      -1.14717400
C        0.29323800       0.06228300      -0.36365600
C        0.32680400      -1.04787200       0.49118900
C       -0.76009600      -1.91193700       0.57586600
C       -1.88656100      -1.68792900      -0.21105100
H       -2.78742900      -0.43181300      -1.70100300
H       -2.72769200      -2.36706800      -0.16046000
H       -0.87110900       1.12232800      -1.81923600
H        1.23293300      -1.27570600       1.05036200
H       -0.71931500      -2.76814700       1.23689100
C        1.44392400       1.03367900      -0.37175800
N        1.44029700       1.83653800       0.89069000
H        0.73994300       2.57190100       0.82163500
H        2.33459400       2.30481400       1.01201600
H        1.38436500       1.69636200      -1.23615700
H        2.39496000       0.50230300      -0.41045100
Cu       0.91646800       0.68845900       2.42032300
18
Properties=species:S:1:pos:R:3 energy=-1967.195608991858 pbc="F F F"
C       -1.91819600      -0.60441700      -1.08357000
C       -0.83722900       0.27199200      -1.15031800
C        0.28977200       0.06348000      -0.36196600
C        0.32163400      -1.04520200       0.49392900
C       -0.76413800      -1.91027800       0.57655300
C       -1.88839200      -1.68907500      -0.21504300
H       -2.78490200      -0.43659800      -1.71049600
H       -2.72900500      -2.36938400      -0.16670000
H       -0.86975400       1.11920700      -1.82394300
H        1.22506900      -1.27077700       1.05845100
H       -0.72567200      -2.76527300       1.23950700
C        1.44225700       1.03359300      -0.37047400
N        1.44398800       1.83513700       0.89248700
H        0.73483500       2.56302600       0.83222000
H        2.33364500       2.31261200       1.00490100
H        1.37833700       1.69920700      -1.23410100
H        2.39198100       0.50349300      -0.41520400
Cu       0.95576900       0.68925500       2.43376600
18
Properties=species:S:1:pos:R:3 energy=-1967.195518150016 pbc="F F F"
C       -1.91777600      -0.60675500      -1.08892500
C       -0.83743800       0.27060700      -1.15285300
C        0.28716800       0.06426800      -0.36038500
C        0.31708700      -1.04331300       0.49643500
C       -0.76833000      -1.90877100       0.57723500
C       -1.89007900      -1.68995100      -0.21862300
H       -2.78209800      -0.44094500      -1.71975500
H       -2.73009800      -2.37100000      -0.17222400
H       -0.86822400       1.11669500      -1.82798900
H        1.21850300      -1.26743200       1.06502200
H       -0.73180400      -2.76222300       1.24233600
C        1.43981400       1.03392000      -0.36969600
N        1.44671200       1.83359900       0.89448200
H        0.72951600       2.55423200       0.84234100
H        2.33257700       2.32052000       0.99682200
H        1.37276700       1.70182600      -1.23142500
H        2.38943800       0.50418700      -0.41920100
Cu       0.99226600       0.69053500       2.44640300
18
Properties=species:S:1:pos:R:3 energy=-1967.195467885474 pbc="F F F"
C       -1.91731600      -0.60786100      -1.09195300
C       -0.83725300       0.26979000      -1.15482500
C        0.28586300       0.06443000      -0.35990600
C        0.31491300      -1.04209900       0.49772700
C       -0.76989600      -1.90819000       0.57725100
C       -1.89048800      -1.69026300      -0.22067900
H       -2.78095600      -0.44243800      -1.72390300
H       -2.73059900      -2.37107900      -0.17424700
H       -0.86688400       1.11595800      -1.82990800
H        1.21495100      -1.26381800       1.06969300
H       -0.73407300      -2.76096400       1.24319100
C        1.43835000       1.03357100      -0.36926800
N        1.44752000       1.83220600       0.89539500
H        0.72641900       2.54945900       0.84741400
H        2.33143400       2.32348200       0.99248700
H        1.36952400       1.70261900      -1.23010500
H        2.38760800       0.50423000      -0.42110700
Cu       1.01088300       0.69096600       2.45274300
18
Properties=species:S:1:pos:R:3 energy=-1967.19542211361 pbc="F F F"
C       -1.91536700      -0.60989600      -1.09704800
C       -0.83622400       0.26863200      -1.15582600
C        0.28461500       0.06359600      -0.35782000
C        0.31110800      -1.04121000       0.50233300
C       -0.77480100      -1.90637900       0.57989700
C       -1.89069600      -1.69175600      -0.22448200
H       -2.77504700      -0.44793200      -1.73426500
H       -2.73205900      -2.37102800      -0.17740200
H       -0.86450400       1.11720500      -1.82894700
H        1.21048600      -1.26180000       1.07593400
H       -0.74077900      -2.75745500       1.24743400
C        1.43372900       1.03576500      -0.36923900
N        1.44960300       1.83216600       0.89703200
H        0.72410600       2.54484400       0.85510000
H        2.33185200       2.32996600       0.98716400
H        1.36059800       1.70301500      -1.22887600
H        2.38470400       0.50734600      -0.42548800
Cu       1.03867600       0.68492000       2.45449700
18
Properties=species:S:1:pos:R:3 energy=-1967.195324697295 pbc="F F F"
C       -1.91464400      -0.61212600      -1.10145900
C       -0.83603400       0.26746800      -1.15729800
C        0.28286100       0.06490200      -0.35547200
C        0.30677200      -1.03955700       0.50527600
C       -0.77956600      -1.90457800       0.58220900
C       -1.89318500      -1.69181600      -0.22595900
H       -2.77177500      -0.45272600      -1.74289800
H       -2.73327800      -2.37333900      -0.18282100
H       -0.86341400       1.11461900      -1.83214100
H        1.20520900      -1.26227800       1.07932700
H       -0.74792200      -2.75476900       1.25140000
C        1.43269400       1.03715000      -0.36845800
N        1.45356700       1.83230200       0.89821000
H        0.71950700       2.53664000       0.86401400
H        2.33088800       2.33990700       0.98285300
H        1.35589600       1.70521500      -1.22690000
H        2.38370500       0.50980100      -0.42982500
Cu       1.06871900       0.68318400       2.45994200
18
Properties=species:S:1:pos:R:3 energy=-1967.195219608141 pbc="F F F"
C       -1.91354700      -0.61406800      -1.10522800
C       -0.83557000       0.26657300      -1.15848600
C        0.28166000       0.06553500      -0.35374700
C        0.30395900      -1.03850500       0.50741500
C       -0.78233400      -1.90391600       0.58349700
C       -1.89417800      -1.69202800      -0.22738400
H       -2.76911400      -0.45570600      -1.74930200
H       -2.73402800      -2.37367700      -0.18542900
H       -0.86191000       1.11438700      -1.83256300
H        1.20143600      -1.26084900       1.08328600
H       -0.75231800      -2.75324300       1.25433400
C        1.43124400       1.03811300      -0.36826300
N        1.45521900       1.83276700       0.89876300
H        0.71641300       2.53291100       0.86954400
H        2.33045900       2.34445800       0.97934500
H        1.35050900       1.70666000      -1.22629200
H        2.38335800       0.51069300      -0.43212100
Cu       1.08874100       0.67989400       2.46262900
18
Properties=species:S:1:pos:R:3 energy=-1967.194842466542 pbc="F F F"
C       -1.90723500      -0.61928700      -1.11189300
C       -0.83510800       0.26793000      -1.14562500
C        0.28149400       0.06402600      -0.34116600
C        0.30351400      -1.04660100       0.51365900
C       -0.79299700      -1.90075300       0.59313600
C       -1.89711800      -1.69292400      -0.22913200
H       -2.74654900      -0.47208300      -1.77929700
H       -2.73639300      -2.37569500      -0.19431000
H       -0.86032500       1.12117400      -1.81254600
H        1.20693700      -1.29544000       1.06969500
H       -0.77630200      -2.74096000       1.27531000
C        1.42444600       1.04413700      -0.36439700
N        1.45957500       1.84354900       0.89939000
H        0.72260300       2.54584600       0.87884200
H        2.33600600       2.35722400       0.95841300
H        1.33037000       1.71139500      -1.22095100
H        2.38112300       0.52394500      -0.43625000
Cu       1.10596000       0.66451600       2.44712100
18
Properties=species:S:1:pos:R:3 energy=-1967.195074000244 pbc="F F F"
C       -1.91286700      -0.61434800      -1.11234200
C       -0.83444000       0.26489800      -1.16585500
C        0.27852600       0.06354300      -0.35675700
C        0.30040200      -1.03410000       0.51007800
C       -0.78193800      -1.90266600       0.57985900
C       -1.89139700      -1.69293800      -0.23563700
H       -2.76887900      -0.45471100      -1.75520600
H       -2.73493100      -2.36894200      -0.18623500
H       -0.85667400       1.11321900      -1.83889000
H        1.19100700      -1.23772500       1.10505600
H       -0.75176300      -2.75027300       1.25251800
C        1.42602100       1.03467900      -0.36802700
N        1.45203400       1.82437100       0.90142800
H        0.70527300       2.51667600       0.88085800
H        2.32246900       2.34485900       0.96490200
H        1.34441800       1.70842300      -1.22386400
H        2.37469400       0.50636900      -0.43296000
Cu       1.13804400       0.67866600       2.48107600
18
Properties=species:S:1:pos:R:3 energy=-1967.194871220287 pbc="F F F"
C       -1.91643100      -0.61798200      -1.11851600
C       -0.83757600       0.26145200      -1.16940600
C        0.27351000       0.06820300      -0.35312800
C        0.28918500      -1.03162400       0.51196400
C       -0.79462900      -1.89960100       0.58092200
C       -1.90158400      -1.69316000      -0.23808300
H       -2.76864200      -0.46155800      -1.76795800
H       -2.73723300      -2.37963800      -0.20476000
H       -0.85750500       1.09769800      -1.85816300
H        1.17690000      -1.24552800       1.10577300
H       -0.76822300      -2.74495000       1.25652400
C        1.42797200       1.03591200      -0.36485300
N        1.45837200       1.82392300       0.90748000
H        0.69042700       2.49088400       0.90382700
H        2.31373600       2.37587200       0.95283200
H        1.34922700       1.71571200      -1.21532300
H        2.37833000       0.50682000      -0.43746100
Cu       1.22416300       0.69756600       2.50833100
18
Properties=species:S:1:pos:R:3 energy=-1967.194708745387 pbc="F F F"
C       -1.91501900      -0.62193100      -1.12835100
C       -0.83714100       0.25865600      -1.17421100
C        0.26911000       0.06891500      -0.35041100
C        0.28084100      -1.02881100       0.51661000
C       -0.80258400      -1.89724600       0.58206700
C       -1.90465300      -1.69433700      -0.24442000
H       -2.76282700      -0.46868500      -1.78410300
H       -2.73994400      -2.38155800      -0.21392400
H       -0.85353800       1.09350700      -1.86483600
H        1.16375700      -1.23891500       1.11811000
H       -0.77997700      -2.73973500       1.26125000
C        1.42361300       1.03639200      -0.36273800
N        1.46199400       1.82099800       0.91146300
H        0.68053400       2.47213600       0.92349400
H        2.30623900       2.39118500       0.93976400
H        1.33990700       1.71921500      -1.21017900
H        2.37382900       0.50819100      -0.44305800
Cu       1.29586000       0.70202400       2.52347100
18
Properties=species:S:1:pos:R:3 energy=-1967.194613801314 pbc="F F F"
C       -1.91371600      -0.62490500      -1.13568700
C       -0.83662200       0.25650000      -1.17819000
C        0.26595300       0.06925600      -0.34851900
C        0.27490300      -1.02688700       0.51993200
C       -0.80778500      -1.89611500       0.58259400
C       -1.90664000      -1.69508100      -0.24881200
H       -2.75896100      -0.47337100      -1.79515600
H       -2.74194800      -2.38237600      -0.21982800
H       -0.85048400       1.09135500      -1.86889800
H        1.15413800      -1.23270000       1.12772600
H       -0.78767000      -2.73694800       1.26397700
C        1.42062600       1.03659000      -0.36139900
N        1.46464900       1.81867900       0.91418900
H        0.67387300       2.45820100       0.93707300
H        2.30120700       2.40099700       0.93162400
H        1.33229100       1.72140600      -1.20686700
H        2.37045300       0.50889700      -0.44711500
Cu       1.34573300       0.70650500       2.53335600
18
Properties=species:S:1:pos:R:3 energy=-1967.194503692825 pbc="F F F"
C       -1.90952100      -0.62879300      -1.14280600
C       -0.83409200       0.25547000      -1.17801600
C        0.26444500       0.06868100      -0.34331800
C        0.26870300      -1.02593000       0.52671700
C       -0.81607200      -1.89252700       0.58829300
C       -1.90825400      -1.69672400      -0.25302100
H       -2.74760500      -0.48340800      -1.81235000
H       -2.74496700      -2.38355400      -0.22560900
H       -0.84688700       1.09292200      -1.86531800
H        1.14708300      -1.23541800       1.13426100
H       -0.80097400      -2.73153100       1.27212800
C        1.41534100       1.03937000      -0.35871200
N        1.47008200       1.82128800       0.91463500
H        0.67200900       2.45183900       0.94975400
H        2.29721300       2.41447200       0.92554500
H        1.31952800       1.72121000      -1.20395100
H        2.36621600       0.51674500      -0.45284700
Cu       1.38775200       0.69589100       2.52461400
18
Properties=species:S:1:pos:R:3 energy=-1967.194407852633 pbc="F F F"
C       -1.90643700      -0.63230500      -1.14912300
C       -0.83260900       0.25450800      -1.17864500
C        0.26273700       0.06862900      -0.33955900
C        0.26365800      -1.02486900       0.53157700
C       -0.82122900      -1.89126300       0.59131800
C       -1.90935700      -1.69737200      -0.25571500
H       -2.74073700      -0.48927300      -1.82400800
H       -2.74644800      -2.38329600      -0.22888800
H       -0.84408400       1.09491300      -1.86234400
H        1.14181300      -1.23524300       1.13948300
H       -0.80920500      -2.72903000       1.27767400
C        1.41450200       1.03956600      -0.35720500
N        1.47162300       1.82389900       0.91561500
H        0.66846900       2.44889300       0.95968800
H        2.29451800       2.42219300       0.91984300
H        1.30853900       1.72232700      -1.20209300
H        2.36650500       0.51859900      -0.45634700
Cu       1.41774200       0.68912500       2.51872700
18
Properties=species:S:1:pos:R:3 energy=-1967.194323030491 pbc="F F F"
C       -1.90602500      -0.63365400      -1.15431300
C       -0.83179100       0.25247100      -1.18326200
C        0.26030400       0.06892100      -0.33937600
C        0.25883300      -1.02182700       0.53455800
C       -0.82406500      -1.89054400       0.59025700
C       -1.91007400      -1.69792800      -0.25988600
H       -2.74006800      -0.49016200      -1.82942300
H       -2.74773200      -2.38307300      -0.23274500
H       -0.84068000       1.09194200      -1.86824900
H        1.13142300      -1.22446500       1.15294300
H       -0.81263900      -2.72778600       1.27714800
C        1.41209300       1.03910300      -0.35626200
N        1.47200900       1.82088000       0.91762700
H        0.66081300       2.43484000       0.97089500
H        2.28704700       2.42988400       0.91307400
H        1.30570200       1.72342200      -1.19987500
H        2.36305100       0.51735200      -0.45674700
Cu       1.46179800       0.69062500       2.52363700
18
Properties=species:S:1:pos:R:3 energy=-1967.194217457748 pbc="F F F"
C       -1.90835900      -0.63437200      -1.15544100
C       -0.83378400       0.25185200      -1.18267000
C        0.25908500       0.07090000      -0.33771800
C        0.25478300      -1.02059300       0.53676100
C       -0.82940900      -1.88929600       0.59087700
C       -1.91390700      -1.69921300      -0.26197700
H       -2.73967800      -0.49407000      -1.83509700
H       -2.74893100      -2.38839900      -0.24139400
H       -0.84119600       1.08459600      -1.87589300
H        1.12592400      -1.22817500       1.15533500
H       -0.82034200      -2.72565000       1.27893300
C        1.41275100       1.04144300      -0.35745500
N        1.47703300       1.82016000       0.91933400
H        0.65817600       2.42247300       0.98072800
H        2.28484500       2.44039900       0.91084300
H        1.30594700       1.72922400      -1.19828800
H        2.36433400       0.51831500      -0.46126400
Cu       1.49273000       0.70040600       2.53438700
18
Properties=species:S:1:pos:R:3 energy=-1967.194018674741 pbc="F F F"
C       -1.90176100      -0.63927100      -1.16737900
C       -0.83061800       0.24947800      -1.18315100
C        0.25554300       0.06920500      -0.33054400
C        0.24814300      -1.02116100       0.54452700
C       -0.83876000      -1.88612800       0.59485400
C       -1.91456500      -1.70007200      -0.26934600
H       -2.72274000      -0.50379500      -1.85950600
H       -2.75168100      -2.38611800      -0.24926200
H       -0.83293600       1.08636500      -1.87110400
H        1.11457600      -1.22924500       1.16941900
H       -0.83843300      -2.71537300       1.29071100
C        1.40228000       1.04391600      -0.35244800
N        1.47737800       1.82182400       0.92237900
H        0.65068400       2.41141100       1.00346900
H        2.27261500       2.45660600       0.88913400
H        1.28930000       1.72987700      -1.19262100
H        2.35486300       0.52463100      -0.46117400
Cu       1.56611000       0.68784900       2.52204100
18
Properties=species:S:1:pos:R:3 energy=-1967.193393131773 pbc="F F F"
C       -1.89447800      -0.64598400      -1.17854300
C       -0.82803800       0.24752400      -1.17905500
C        0.25215600       0.06978300      -0.31855000
C        0.24070400      -1.02287700       0.55449600
C       -0.85148000      -1.88205200       0.60319900
C       -1.91845700      -1.69994000      -0.27282000
H       -2.70162700      -0.51803100      -1.88812700
H       -2.75486200      -2.38704600      -0.26037200
H       -0.82576900       1.08690200      -1.86354800
H        1.10727400      -1.24466800       1.17528300
H       -0.86382500      -2.70366100       1.30804700
C        1.39520000       1.04976200      -0.34629700
N        1.47800800       1.83279500       0.92465100
H        0.64419300       2.40958200       1.02517000
H        2.26209100       2.48016100       0.87125300
H        1.27310400       1.73075900      -1.18895400
H        2.35051600       0.53507000      -0.45711100
Cu       1.63529000       0.66192300       2.49127700
18
Properties=species:S:1:pos:R:3 energy=-1967.193914950202 pbc="F F F"
C       -1.89960300      -0.63860800      -1.17272800
C       -0.82836100       0.24853900      -1.19149400
C        0.25409500       0.06464400      -0.33696700
C        0.24945900      -1.01858900       0.54385200
C       -0.83185800      -1.88788100       0.58929000
C       -1.90761100      -1.70010400      -0.27518200
H       -2.72518400      -0.49777100      -1.85740500
H       -2.75197700      -2.37542500      -0.24087000
H       -0.82825500       1.09352400      -1.86982800
H        1.10964100      -1.19991900       1.18606000
H       -0.82741600      -2.71647200       1.28490000
C        1.39720800       1.03759500      -0.35347200
N        1.47193500       1.80914000       0.92490100
H        0.64551300       2.40011700       1.00419100
H        2.26765400       2.44140900       0.88432700
H        1.28012700       1.72738800      -1.19100200
H        2.34703600       0.51620500      -0.46533300
Cu       1.57759800       0.69621000       2.53676000
18
Properties=species:S:1:pos:R:3 energy=-1967.193849882522 pbc="F F F"
C       -1.90729200      -0.63956800      -1.17423200
C       -0.83188100       0.24477400      -1.19777600
C        0.24956000       0.07113800      -0.33688400
C        0.23698600      -1.01159100       0.54603400
C       -0.84078200      -1.88667100       0.58589700
C       -1.91755800      -1.70168300      -0.27780100
H       -2.73638100      -0.49740200      -1.85601700
H       -2.75296500      -2.38996900      -0.25918000
H       -0.82999100       1.07092500      -1.89869600
H        1.08925600      -1.19388500       1.19682200
H       -0.83640700      -2.71894400       1.27825800
C        1.40380100       1.03757600      -0.35316000
N        1.48264600       1.80384100       0.92925400
H        0.63834500       2.36335400       1.03005000
H        2.25592200       2.46420500       0.88167100
H        1.29299600       1.73763500      -1.18263900
H        2.35252300       0.51403000      -0.47380800
Cu       1.65122000       0.73223500       2.56220700
18
Properties=species:S:1:pos:R:3 energy=-1967.193457945308 pbc="F F F"
C       -1.90798600      -0.64360200      -1.18385300
C       -0.83202100       0.24023300      -1.20535000
C        0.24417100       0.07303400      -0.33626100
C        0.22312000      -1.00224700       0.55601000
C       -0.85253400      -1.88037300       0.58800000
C       -1.92114200      -1.70477000      -0.28719200
H       -2.73206900      -0.50653100      -1.87222900
H       -2.75472700      -2.39540700      -0.27434800
H       -0.82466500       1.05677100      -1.91732800
H        1.06722200      -1.17480800       1.21939700
H       -0.85148800      -2.71070500       1.28213500
C        1.39871400       1.03989400      -0.35343000
N        1.49209700       1.79294400       0.93677400
H        0.63181200       2.32194100       1.06096700
H        2.23872700       2.48207100       0.87484700
H        1.28474600       1.74851900      -1.17491400
H        2.34674900       0.51795500      -0.48850200
Cu       1.74927600       0.74508200       2.57527700
18
Properties=species:S:1:pos:R:3 energy=-1967.192431761401 pbc="F F F"
C       -1.90631900      -0.64792200      -1.20121100
C       -0.82828100       0.23360600      -1.23033600
C        0.23591800       0.07392000      -0.34588400
C        0.20588700      -0.98139500       0.56486700
C       -0.85233100      -1.87767700       0.58085200
C       -1.91625400      -1.70793100      -0.30295200
H       -2.74009000      -0.50286900      -1.87703700
H       -2.75406200      -2.39224500      -0.27851800
H       -0.81364600       1.04950100      -1.94313700
H        1.02288300      -1.10121100       1.27140100
H       -0.84443400      -2.70976300       1.27308300
C        1.39512700       1.02940800      -0.35584400
N        1.49572400       1.76063900       0.94654800
H        0.61757800       2.25365700       1.09971100
H        2.21297000       2.47672800       0.86952400
H        1.26720200       1.75884300      -1.15967800
H        2.33575300       0.50273900      -0.51678100
Cu       1.86637400       0.78197200       2.60539300
18
Properties=species:S:1:pos:R:3 energy=-1967.193090303528 pbc="F F F"
C       -1.90315400      -0.65131800      -1.19973900
C       -0.82950700       0.23523600      -1.21371900
C        0.23809000       0.07556400      -0.33080400
C        0.20666000      -0.99247000       0.56946300
C       -0.86631200      -1.87505300       0.59330100
C       -1.92458800      -1.70730000      -0.29622600
H       -2.72031800      -0.51977000      -1.89754000
H       -2.75647200      -2.40064400      -0.28917600
H       -0.81577100       1.05049000      -1.92725200
H        1.03904500      -1.15543200       1.24929300
H       -0.87066300      -2.70210200       1.29156600
C        1.39483700       1.04242500      -0.35068800
N        1.49759100       1.78905900       0.94306800
H        0.62317800       2.28807400       1.09603000
H        2.22004800       2.50338400       0.86717600
H        1.26630500       1.75664600      -1.16691900
H        2.34095100       0.52229300      -0.49978100
Cu       1.86008100       0.74091700       2.56194700
18
Properties=species:S:1:pos:R:3 energy=-1967.192925762984 pbc="F F F"
C       -1.88853400      -0.65664400      -1.20759300
C       -0.82265700       0.23689400      -1.20049300
C        0.23927700       0.07160800      -0.31447200
C        0.21014300      -1.00456100       0.57579700
C       -0.87428600      -1.87305400       0.60536400
C       -1.92364900      -1.70435600      -0.29448400
H       -2.68802200      -0.53426500      -1.92656700
H       -2.75851300      -2.39374300      -0.28841300
H       -0.80854100       1.06944300      -1.89385200
H        1.05352900      -1.19213300       1.23586300
H       -0.89325200      -2.69018500       1.31458100
C        1.38322400       1.04809300      -0.34029500
N        1.48838900       1.81336700       0.93984600
H        0.62278300       2.32608200       1.09836200
H        2.21723800       2.51954000       0.85100600
H        1.24637400       1.74243600      -1.16628800
H        2.33703900       0.53364200      -0.48288200
Cu       1.85945700       0.68783500       2.49452100
18
Properties=species:S:1:pos:R:3 energy=-1967.192859355314 pbc="F F F"
C       -1.89275700      -0.66048300      -1.21593300
C       -0.82423400       0.23150300      -1.21289700
C        0.23175800       0.07502500      -0.31741000
C        0.19343600      -0.99281300       0.58221000
C       -0.88374500      -1.86940100       0.60152200
C       -1.92864200      -1.70870700      -0.30477100
H       -2.69356900      -0.53759200      -1.93341000
H       -2.75989400      -2.40229200      -0.30395700
H       -0.80515500       1.05110300      -1.92104400
H        1.02182400      -1.16438900       1.26472700
H       -0.90215400      -2.68732400       1.31029400
C        1.38315300       1.04584600      -0.33972800
N        1.50010800       1.79798500       0.94858800
H        0.61960600       2.27409300       1.13348800
H        2.19785500       2.53253200       0.84783300
H        1.24582700       1.75632100      -1.15745500
H        2.33005200       0.53259600      -0.49790400
Cu       1.96653000       0.72599700       2.51584600
18
Properties=species:S:1:pos:R:3 energy=-1967.192495990839 pbc="F F F"
C       -1.88503200      -0.66671600      -1.22992500
C       -0.82031500       0.22839300      -1.21454500
C        0.22675400       0.07643400      -0.30787300
C        0.18147600      -0.98799500       0.59549300
C       -0.89582600      -1.86572100       0.60674400
C       -1.92976000      -1.71048500      -0.31293200
H       -2.67637300      -0.54858700      -1.95900400
H       -2.76158700      -2.40330300      -0.31647100
H       -0.79437300       1.04995500      -1.92055800
H        1.00182000      -1.15505800       1.28751700
H       -0.92286700      -2.67816400       1.32151800
C        1.37445800       1.04971300      -0.33547700
N        1.50112700       1.79996100       0.95296400
H        0.61369800       2.25193700       1.16592500
H        2.17608500       2.55385400       0.83552300
H        1.22831300       1.75685000      -1.14999600
H        2.32365100       0.53358000      -0.49903400
Cu       2.05875200       0.71535100       2.48013200
18
Properties=species:S:1:pos:R:3 energy=-1967.192375426309 pbc="F F F"
C       -1.89009600      -0.66961500      -1.23372100
C       -0.82324700       0.22467000      -1.22179100
C        0.22215800       0.07957000      -0.31048700
C        0.17077000      -0.98060200       0.59881300
C       -0.90327100      -1.86278200       0.60549800
C       -1.93518400      -1.71329200      -0.31720800
H       -2.68192700      -0.55345300      -1.96261900
H       -2.76212500      -2.41249600      -0.32780600
H       -0.79660300       1.03616100      -1.93932100
H        0.98419000      -1.14026900       1.30074800
H       -0.92893600      -2.67778100       1.31807300
C        1.37635600       1.05015100      -0.33699700
N        1.51521100       1.78889100       0.95815400
H        0.62070200       2.21778800       1.18637700
H        2.17136500       2.55873800       0.83664900
H        1.22714600       1.77030700      -1.14311900
H        2.32237800       0.53697700      -0.51503700
Cu       2.11111400       0.74703700       2.50379300
18
Properties=species:S:1:pos:R:3 energy=-1967.191905603164 pbc="F F F"
C       -1.89559900      -0.67668600      -1.23878500
C       -0.82736000       0.21696600      -1.23219100
C        0.21703400       0.08686000      -0.31295800
C        0.15401100      -0.96726600       0.60463700
C       -0.91790300      -1.85349600       0.60860100
C       -1.94498600      -1.71698400      -0.32028200
H       -2.68785500      -0.56665200      -1.96885000
H       -2.75931500      -2.43207400      -0.34307400
H       -0.80253200       1.00641600      -1.97411100
H        0.95905700      -1.13291400       1.31292900
H       -0.94224700      -2.66534800       1.32271100
C        1.38283200       1.05513300      -0.33588500
N        1.53196800       1.78302100       0.96860300
H        0.63470100       2.18954600       1.22698500
H        2.16284300       2.57307200       0.84601300
H        1.23399900       1.79027900      -1.12685000
H        2.32771100       0.55029600      -0.53650100
Cu       2.17364100       0.75983200       2.49900800
18
Properties=species:S:1:pos:R:3 energy=-1967.192104584048 pbc="F F F"
C       -1.87791300      -0.67452400      -1.24854300
C       -0.81620400       0.22268800      -1.22565000
C        0.21719600       0.07801600      -0.30375300
C        0.16759400      -0.97807000       0.60765900
C       -0.90495200      -1.86051100       0.60904400
C       -1.92831200      -1.71180100      -0.32422500
H       -2.66284100      -0.55922000      -1.98479800
H       -2.76101700      -2.40272300      -0.32853100
H       -0.78222500       1.04629700      -1.92943800
H        0.97491500      -1.12147100       1.31934900
H       -0.93870300      -2.66620400       1.33060800
C        1.36124900       1.04972700      -0.33151600
N        1.50819000       1.78507700       0.96176900
H        0.61378400       2.20587600       1.20678200
H        2.15415100       2.56063800       0.82465500
H        1.20325800       1.76472400      -1.13524300
H        2.30439600       0.53176300      -0.51552200
Cu       2.16743400       0.72971800       2.46735300
18
Properties=species:S:1:pos:R:3 energy=-1967.191788158455 pbc="F F F"
C       -1.87952900      -0.68491700      -1.25987200
C       -0.81799800       0.21444900      -1.23788800
C        0.20822700       0.08742700      -0.30208500
C        0.14279100      -0.95780400       0.62228000
C       -0.92404000      -1.84839100       0.61488200
C       -1.93673800      -1.71746500      -0.33168100
H       -2.65937800      -0.57864900      -2.00320300
H       -2.75819600      -2.42252500      -0.35093100
H       -0.78085100       1.01800600      -1.96332000
H        0.93531100      -1.09606000       1.35159900
H       -0.96121100      -2.65282200       1.33865600
C        1.36176100       1.05679500      -0.33085300
N        1.52897500       1.77387300       0.97257000
H        0.62746800       2.14956300       1.25957000
H        2.13587200       2.57975300       0.83262200
H        1.19794900       1.79115400      -1.12035900
H        2.30204300       0.54580600      -0.54180000
Cu       2.27754700       0.74180700       2.44981300
18
Properties=species:S:1:pos:R:3 energy=-1967.191435575846 pbc="F F F"
C       -1.87286000      -0.69345100      -1.27343400
C       -0.81460500       0.20969200      -1.24337700
C        0.20016500       0.09123800      -0.29542500
C        0.12474700      -0.94570000       0.63812300
C       -0.93756200      -1.84149500       0.62052400
C       -1.93729700      -1.72192700      -0.34149200
H       -2.64417500      -0.59297200      -2.02652600
H       -2.75641400      -2.42961400      -0.36680200
H       -0.77202600       1.01016400      -1.97182000
H        0.90389000      -1.07255300       1.38315500
H       -0.98135000      -2.64297000       1.34793600
C        1.35398000       1.06043400      -0.32620800
N        1.53673500       1.76999800       0.97949000
H        0.63363700       2.11424600       1.29753900
H        2.11502800       2.59416600       0.83039900
H        1.18212500       1.80109300      -1.11093500
H        2.29100700       0.55171500      -0.54945300
Cu       2.37497400       0.73793700       2.40830500
18
Properties=species:S:1:pos:R:3 energy=-1967.191077989295 pbc="F F F"
C       -1.87391900      -0.70797500      -1.29004600
C       -0.81654700       0.19738800      -1.26423000
C        0.19201200       0.09555800      -0.30421800
C        0.11043500      -0.93358600       0.63718700
C       -0.94869400      -1.83260400       0.62025100
C       -1.94271300      -1.72702900      -0.34806400
H       -2.64626000      -0.61391900      -2.04302200
H       -2.75831700      -2.43897300      -0.37055400
H       -0.77576000       0.98414500      -2.00785500
H        0.87967500      -1.04929700       1.39249400
H       -0.99517900      -2.62035500       1.36090800
C        1.34722100       1.06711000      -0.32454600
N        1.55711700       1.74710700       0.99501000
H        0.66058700       2.08033100       1.34284900
H        2.12013500       2.58225600       0.84376300
H        1.16228300       1.83158500      -1.08032800
H        2.28060600       0.56731800      -0.58935900
Cu       2.44731600       0.77094000       2.42976100
18
Properties=species:S:1:pos:R:3 energy=-1967.191225382892 pbc="F F F"
C       -1.86925600      -0.69890600      -1.28189400
C       -0.81390800       0.20706100      -1.24650200
C        0.19609500       0.09379900      -0.29140700
C        0.11438400      -0.93888500       0.64677100
C       -0.94720400      -1.83657000       0.62547700
C       -1.93887000      -1.72346900      -0.34551000
H       -2.63276100      -0.60549400      -2.04361600
H       -2.75459600      -2.43509200      -0.37626800
H       -0.76755700       1.00645600      -1.97647500
H        0.88723000      -1.05900500       1.39912100
H       -0.99452200      -2.63514000       1.35536400
C        1.34894600       1.06485500      -0.32520800
N        1.54309600       1.76640000       0.98364900
H        0.64004200       2.09341800       1.32127900
H        2.10470700       2.60259400       0.83127600
H        1.16986000       1.80762700      -1.10259700
H        2.28626900       0.55510100      -0.55913400
Cu       2.42804400       0.73524900       2.38567100
18
Properties=species:S:1:pos:R:3 energy=-1967.190919058562 pbc="F F F"
C       -1.86138300      -0.70617700      -1.29798400
C       -0.81060000       0.20312700      -1.25688700
C        0.18480600       0.09800600      -0.28760000
C        0.09806200      -0.92208100       0.66119600
C       -0.95579900      -1.82651300       0.62940900
C       -1.93328700      -1.72647200      -0.35705000
H       -2.61860500      -0.61775400      -2.06600700
H       -2.74852100      -2.43753100      -0.38688900
H       -0.75393300       1.00015500      -1.98888600
H        0.85947700      -1.02054300       1.42782700
H       -1.00742400      -2.61727500       1.36630100
C        1.33576800       1.06436300      -0.32111800
N        1.55254400       1.74820200       0.99225900
H        0.65183800       2.04369600       1.36250300
H        2.08002400       2.60422400       0.83234400
H        1.14667300       1.81675900      -1.08581500
H        2.26189300       0.55041400      -0.58097300
Cu       2.51846800       0.74540000       2.35737100
18
Properties=species:S:1:pos:R:3 energy=-1967.19069611859 pbc="F F F"
C       -1.85780900      -0.72556200      -1.30869200
C       -0.81011600       0.19146900      -1.27415100
C        0.18290000       0.10228800      -0.29134800
C        0.08885100      -0.91216500       0.65852000
C       -0.96585200      -1.81698000       0.63714300
C       -1.94071900      -1.72811000      -0.35935900
H       -2.61183300      -0.64653700      -2.08481100
H       -2.75188900      -2.44563300      -0.38529100
H       -0.76048000       0.97512100      -2.01555400
H        0.84497100      -1.01179100       1.43264600
H       -1.02782500      -2.59076200       1.38664200
C        1.33258100       1.07963800      -0.31773400
N        1.56221300       1.74559900       1.00492100
H        0.66824200       2.03537200       1.39612300
H        2.08648500       2.60420900       0.85412000
H        1.13674100       1.84531900      -1.06810300
H        2.26156400       0.58293500      -0.59371900
Cu       2.56197600       0.71558900       2.32864600
18
Properties=species:S:1:pos:R:3 energy=-1967.190641549342 pbc="F F F"
C       -1.85334700      -0.72484600      -1.31640500
C       -0.80931200       0.19324500      -1.26999900
C        0.17498500       0.10910100      -0.28440600
C        0.07331200      -0.89864900       0.67667000
C       -0.97734000      -1.80927500       0.64176700
C       -1.93793400      -1.73190200      -0.36346800
H       -2.59704500      -0.65330600      -2.10015400
H       -2.74415700      -2.45385000      -0.40304000
H       -0.75120300       0.97772900      -2.01460100
H        0.82153800      -0.98750600       1.45766000
H       -1.04045500      -2.58888900       1.38958400
C        1.32749100       1.07856800      -0.31850300
N        1.56987500       1.73751000       1.00514100
H        0.67625100       1.99045000       1.42168800
H        2.05958600       2.61656400       0.84976400
H        1.12833000       1.84597400      -1.06691400
H        2.25359300       0.57413300      -0.60252200
Cu       2.62583200       0.72494700       2.29773800
18
Properties=species:S:1:pos:R:3 energy=-1967.189919625463 pbc="F F F"
C       -1.84050900      -0.74416200      -1.33812900
C       -0.80166400       0.18189800      -1.28705200
C        0.16309500       0.11792900      -0.28047100
C        0.04647700      -0.87439300       0.69392700
C       -0.99769500      -1.79262200       0.65353800
C       -1.93809500      -1.73627400      -0.37303000
H       -2.57051100      -0.68588900      -2.13596900
H       -2.73976500      -2.46335300      -0.41611300
H       -0.73722700       0.95701200      -2.03981900
H        0.77317200      -0.94529700       1.49691700
H       -1.07188700      -2.55855300       1.41359200
C        1.31229700       1.09130200      -0.30955000
N        1.57974200       1.72667900       1.02198100
H        0.69376400       1.92953200       1.48249400
H        2.02655600       2.62784700       0.87415400
H        1.11017100       1.87289300      -1.04398300
H        2.23330000       0.58885000      -0.61208400
Cu       2.75877900       0.70660100       2.19959600
18
Properties=species:S:1:pos:R:3 energy=-1967.18852951982 pbc="F F F"
C       -1.82802500      -0.74645000      -1.34832300
C       -0.79695000       0.18402400      -1.27956000
C        0.15149000       0.12856500      -0.25946700
C        0.02194300      -0.85883100       0.72142700
C       -1.01507900      -1.78370100       0.66126800
C       -1.93551600      -1.73917600      -0.38189100
H       -2.54154900      -0.69707500      -2.16097500
H       -2.72782200      -2.47397500      -0.44115900
H       -0.71838300       0.95656700      -2.03510000
H        0.73265300      -0.92463300       1.53828900
H       -1.09568300      -2.55163900       1.42059200
C        1.30719500       1.09220600      -0.29576600
N        1.57489200       1.73967800       1.02976100
H        0.69847900       1.88876400       1.52531500
H        1.96873200       2.66628900       0.88171600
H        1.12169300       1.85937600      -1.04788800
H        2.22324100       0.57225300      -0.58536900
Cu       2.85869100       0.68775900       2.05712800
18
Properties=species:S:1:pos:R:3 energy=-1967.184155497799 pbc="F F F"
C       -1.81368200      -0.74230100      -1.35021000
C       -0.78695500       0.19003100      -1.26562700
C        0.14492800       0.13503400      -0.23250200
C        0.00890400      -0.85260500       0.74771000
C       -1.02172600      -1.78268300       0.66945400
C       -1.92811400      -1.73747700      -0.38677500
H       -2.51377100      -0.69393400      -2.17372900
H       -2.71486000      -2.47755300      -0.46073700
H       -0.69036100       0.96184500      -2.01905500
H        0.71066500      -0.91654000       1.57305200
H       -1.10653800      -2.55702400       1.42156200
C        1.30393700       1.09084900      -0.26842200
N        1.54222100       1.77844300       1.04386100
H        0.66601300       1.90556500       1.54768100
H        1.91030200       2.71444400       0.88847800
H        1.16348000       1.82319400      -1.06026200
H        2.21947200       0.54250900      -0.50875900
Cu       2.90608400       0.61820200       1.83428000
18
Properties=species:S:1:pos:R:3 energy=-1967.17692286219 pbc="F F F"
C       -1.80342500      -0.73785500      -1.34462900
C       -0.77553500       0.19331000      -1.25206100
C        0.14943800       0.13481200      -0.21367400
C        0.00508200      -0.85813900       0.76186700
C       -1.02395100      -1.78885900       0.67303500
C       -1.92456000      -1.73786600      -0.38788400
H       -2.49873800      -0.68585700      -2.17189500
H       -2.70986900      -2.47829200      -0.47188800
H       -0.67508400       0.96586600      -2.00380700
H        0.69711100      -0.92761000       1.59527700
H       -1.11220300      -2.56969500       1.41881600
C        1.30969700       1.09028200      -0.23886100
N        1.50579200       1.82411000       1.06013300
H        0.62078000       1.95691300       1.54819400
H        1.87314800       2.75880800       0.89660000
H        1.22039600       1.78789900      -1.06737300
H        2.23258900       0.52696100      -0.43666500
Cu       2.90933300       0.54521300       1.63481500
18
Properties=species:S:1:pos:R:3 energy=-1967.170113305334 pbc="F F F"
C       -1.79887900      -0.73467300      -1.34016000
C       -0.76918800       0.19546800      -1.24338500
C        0.15523400       0.13339200      -0.20383300
C        0.00218900      -0.86031200       0.77055200
C       -1.02625200      -1.79177300       0.67594500
C       -1.92407600      -1.73794400      -0.38735600
H       -2.49164600      -0.68316800      -2.17014300
H       -2.70745400      -2.48030000      -0.47777700
H       -0.66949800       0.96682400      -1.99674200
H        0.69079200      -0.93356400       1.60686100
H       -1.11342500      -2.57826100       1.41599900
C        1.31708700       1.08903800      -0.21713500
N        1.48034900       1.85400800       1.07220600
H        0.59005900       1.99218700       1.55077200
H        1.85445800       2.78521600       0.90215400
H        1.26310300       1.76282800      -1.06543700
H        2.25163800       0.52333000      -0.39779600
Cu       2.89550800       0.49770400       1.50527400
18
Properties=species:S:1:pos:R:3 energy=-1967.182179702189 pbc="F F F"
C       -1.79744900      -0.74692700      -1.36597000
C       -0.78213800       0.19320600      -1.27047800
C        0.12754300       0.15307900      -0.22258700
C       -0.00102800      -0.83094900       0.76374900
C       -1.01905000      -1.77182700       0.67351700
C       -1.91451700      -1.73467100      -0.39338100
H       -2.49698700      -0.69025500      -2.18890400
H       -2.70682300      -2.46765100      -0.46263600
H       -0.65924800       0.96441600      -2.02142100
H        0.69117500      -0.88590700       1.59978900
H       -1.12284300      -2.53135100       1.44081300
C        1.29335000       1.09020200      -0.28829100
N        1.56397800       1.74558100       1.03360200
H        0.69515600       1.79348600       1.56759100
H        1.84790600       2.71403200       0.89791900
H        1.12630600       1.85056200      -1.05512200
H        2.16044600       0.48263000      -0.57326100
Cu       2.99422200       0.67234400       1.86506900
18
Properties=species:S:1:pos:R:3 energy=-1967.166446491057 pbc="F F F"
C       -1.78265100      -0.73155800      -1.34542700
C       -0.75613400       0.19758900      -1.24488300
C        0.14523300       0.14508900      -0.18847100
C       -0.00401800      -0.84837500       0.78872800
C       -1.02858200      -1.78092400       0.68437300
C       -1.91414900      -1.72951200      -0.38932700
H       -2.46776300      -0.67487100      -2.17808300
H       -2.69711100      -2.46997000      -0.48669400
H       -0.64047400       0.97225400      -1.99076900
H        0.66835200      -0.91031000       1.63988600
H       -1.12870600      -2.56097600       1.42836100
C        1.32358700       1.08420900      -0.20621000
N        1.46235200       1.85982300       1.07797400
H        0.58033600       1.90348800       1.58622500
H        1.74540700       2.82174900       0.91888100
H        1.30704500       1.75913000      -1.06197900
H        2.22997200       0.45440900      -0.40658900
Cu       2.95730400       0.50875700       1.37400300
18
Properties=species:S:1:pos:R:3 energy=-1967.13684423711 pbc="F F F"
C       -1.76906700      -0.71872800      -1.34653300
C       -0.74063900       0.21105900      -1.23579200
C        0.14969300       0.14843500      -0.16852200
C       -0.02456100      -0.83022400       0.81513100
C       -1.04232100      -1.76556500       0.69687200
C       -1.91091600      -1.71820200      -0.39151500
H       -2.44723300      -0.67113800      -2.18839900
H       -2.69167900      -2.46139900      -0.49368300
H       -0.61891000       0.97810600      -1.98985000
H        0.65410700      -0.89221400       1.65955300
H       -1.14058400      -2.55057600       1.43598100
C        1.31301600       1.08692800      -0.13236500
N        1.36677100       1.92046500       1.09349700
H        0.54597500       1.85436300       1.68959600
H        1.61669900       2.89063000       0.93607900
H        1.40796600       1.70467100      -1.01496600
H        2.38452600       0.27858900      -0.43469800
Cu       2.94715800       0.53479900       1.06961700
18
Properties=species:S:1:pos:R:3 energy=-1967.122404713735 pbc="F F F"
C       -1.76691400      -0.71954300      -1.34821100
C       -0.73852300       0.21042100      -1.23674300
C        0.14340900       0.15477000      -0.15834300
C       -0.02828700      -0.82972100       0.81957500
C       -1.04315000      -1.76622200       0.69691600
C       -1.91100400      -1.71697700      -0.39136500
H       -2.44505200      -0.67044400      -2.18990000
H       -2.69134500      -2.45962300      -0.49384100
H       -0.61731800       0.97852600      -1.99029000
H        0.65389100      -0.89267000       1.66092300
H       -1.14144400      -2.55078800       1.43605700
C        1.26463200       1.13103600      -0.09298200
N        1.32152800       1.94676900       1.08862800
H        0.53982100       1.86395900       1.72642100
H        1.61379300       2.90497400       0.94559100
H        1.41870900       1.70093500      -0.99896900
H        2.52136600       0.17350200      -0.46664100
Cu       2.90588700       0.54109500       0.99317600
18
Properties=species:S:1:pos:R:3 energy=-1967.120415579381 pbc="F F F"
C       -1.76297400      -0.71914500      -1.35595000
C       -0.73120600       0.20584600      -1.24827700
C        0.14157500       0.15354300      -0.16206500
C       -0.02781400      -0.82859900       0.81638000
C       -1.04830500      -1.75744000       0.70000600
C       -1.91541300      -1.70823500      -0.38896400
H       -2.43960700      -0.67327000      -2.19851000
H       -2.69722700      -2.44827000      -0.48957500
H       -0.60576700       0.97175500      -2.00490600
H        0.66369500      -0.88711300       1.64940700
H       -1.15575700      -2.53246500       1.44780900
C        1.22662400       1.15449700      -0.07597000
N        1.29985500       1.95295500       1.09011200
H        0.58268400       1.81323000       1.78690400
H        1.56559900       2.91840300       0.95211300
H        1.40943500       1.70694900      -0.98665300
H        2.59540500       0.06834200      -0.46297300
Cu       2.89920000       0.60901700       0.93111300
18
Properties=species:S:1:pos:R:3 energy=-1967.127343686658 pbc="F F F"
C       -1.76968600      -0.72374300      -1.35385600
C       -0.74829600       0.21000600      -1.23967000
C        0.10801600       0.17670700      -0.13703900
C       -0.04681800      -0.81991300       0.83249800
C       -1.04639200      -1.76942300       0.69597700
C       -1.91433200      -1.71847000      -0.39308700
H       -2.44620900      -0.67666100      -2.19658500
H       -2.69451700      -2.46138600      -0.49560600
H       -0.62434300       0.97897300      -1.99141200
H        0.63890400      -0.88576400       1.66920100
H       -1.14055200      -2.55914900       1.42986800
C        1.12885500       1.22832900      -0.04406300
N        1.23260500       2.00374500       1.08608700
H        0.54207900       1.89267700       1.81559900
H        1.62533900       2.93053100       0.98564000
H        1.43199800       1.70510600      -0.96505300
H        2.91977700      -0.08331600      -0.51845500
Cu       2.80356900       0.57175000       0.81995500
18
Properties=species:S:1:pos:R:3 energy=-1967.130236741673 pbc="F F F"
C       -1.79507200      -0.74413800      -1.37233000
C       -0.78474000       0.20062800      -1.26253600
C        0.05529700       0.19905100      -0.14165000
C       -0.07761400      -0.80552700       0.82543500
C       -1.05747000      -1.77220900       0.68665700
C       -1.93029700      -1.73159500      -0.40116500
H       -2.47396100      -0.71084000      -2.21445900
H       -2.70482400      -2.48218200      -0.49498100
H       -0.66464800       0.95923000      -2.02527200
H        0.61878200      -0.86146200       1.65324400
H       -1.13757400      -2.56481000       1.41847000
C        1.03595300       1.26786300      -0.04688600
N        1.26787000       1.98281600       1.10045500
H        0.61794900       1.93701700       1.87827300
H        1.75366600       2.86588200       0.98271500
H        1.29242900       1.77406900      -0.96827000
H        3.22902400      -0.11553500      -0.41905200
Cu       2.75522900       0.60174600       0.80135100
18
Properties=species:S:1:pos:R:3 energy=-1967.125293289494 pbc="F F F"
C       -1.80157200      -0.74689400      -1.35984500
C       -0.79509000       0.20219400      -1.24131900
C        0.04661400       0.19890600      -0.12139300
C       -0.09607600      -0.81569100       0.83799300
C       -1.06897100      -1.79101800       0.68519200
C       -1.93800800      -1.74593900      -0.40238300
H       -2.47400600      -0.71417800      -2.20658600
H       -2.71043600      -2.49703200      -0.50974700
H       -0.67355400       0.95870300      -2.00557200
H        0.58415300      -0.88231500       1.67880900
H       -1.14470900      -2.59420800       1.40684500
C        1.06701600       1.25054200      -0.03137200
N        1.24890800       2.01601900       1.08729500
H        0.56447400       2.04414900       1.83195700
H        1.83991800       2.83624800       1.00006300
H        1.42655500       1.67688200      -0.95727600
H        3.21306800       0.10501600      -0.52373500
Cu       2.71171300       0.49861600       0.83107300
18
Properties=species:S:1:pos:R:3 energy=-1967.121832535435 pbc="F F F"
C       -1.79858700      -0.74316700      -1.35956400
C       -0.78537500       0.20032000      -1.24514000
C        0.06524500       0.18832500      -0.13135500
C       -0.08032500      -0.82370900       0.82758400
C       -1.06239600      -1.79002100       0.68306400
C       -1.93561100      -1.74159400      -0.40129800
H       -2.47661000      -0.70558700      -2.20201600
H       -2.71093100      -2.49024200      -0.50411300
H       -0.66806300       0.95852600      -2.00887600
H        0.60553500      -0.89160700       1.66384800
H       -1.14086300      -2.58897700       1.40842400
C        1.09331000       1.23293200      -0.03834900
N        1.27004800       2.00175300       1.08725500
H        0.56037300       2.04577000       1.80532400
H        1.84856300       2.82739300       0.98113900
H        1.39530100       1.69116500      -0.96927600
H        3.09232000       0.14053400      -0.50288100
Cu       2.72806400       0.48818700       0.90623200
18
Properties=species:S:1:pos:R:3 energy=-1967.123900699637 pbc="F F F"
C       -1.79694000      -0.74183900      -1.35995800
C       -0.78350400       0.20122800      -1.24596300
C        0.06612100       0.18873100      -0.13201800
C       -0.07913800      -0.82195300       0.82818300
C       -1.06172900      -1.78760000       0.68437000
C       -1.93442800      -1.73936100      -0.40070100
H       -2.47416300      -0.70450300      -2.20299000
H       -2.70961600      -2.48822500      -0.50355700
H       -0.66514100       0.96022600      -2.00886800
H        0.60717700      -0.88801300       1.66409700
H       -1.14124800      -2.58584100       1.41041900
C        1.08964700       1.23620000      -0.03819800
N        1.26599300       2.00151600       1.08931700
H        0.56208400       2.02814100       1.81441700
H        1.82817900       2.83849900       0.98304300
H        1.39331000       1.69640400      -0.96799300
H        3.10254700       0.10090900      -0.50220000
Cu       2.73085100       0.50548200       0.88860000
18
Properties=species:S:1:pos:R:3 energy=-1967.126759263404 pbc="F F F"
C       -1.79536500      -0.74097700      -1.36021600
C       -0.78334300       0.20294200      -1.24582100
C        0.06321600       0.19167900      -0.13025100
C       -0.08084600      -0.81811300       0.83129200
C       -1.06232000      -1.78500900       0.68638200
C       -1.93345600      -1.73748300      -0.40019100
H       -2.47043300      -0.70465600      -2.20481500
H       -2.70790300      -2.48684400      -0.50423000
H       -0.66252100       0.96242600      -2.00749500
H        0.60447900      -0.88237700       1.66797300
H       -1.14267300      -2.58331000       1.41244100
C        1.07910800       1.24448300      -0.03670500
N        1.25564400       2.00492600       1.09110900
H        0.56545100       2.00621400       1.83089100
H        1.79877300       2.85520600       0.99059300
H        1.40029400       1.69884800      -0.96360600
H        3.14119600       0.04328400      -0.50529200
Cu       2.73069800       0.52876300       0.84794100
18
Properties=species:S:1:pos:R:3 energy=-1967.127875523747 pbc="F F F"
C       -1.78960000      -0.73965100      -1.36201200
C       -0.77739700       0.20368300      -1.24637700
C        0.06858100       0.19189400      -0.13103400
C       -0.07854300      -0.81344700       0.83427200
C       -1.06114000      -1.77877800       0.68913600
C       -1.92921700      -1.73410100      -0.40008100
H       -2.46447700      -0.70257000      -2.20674700
H       -2.70447600      -2.48252700      -0.50289600
H       -0.65620200       0.96470500      -2.00650800
H        0.60560800      -0.87656400       1.67220000
H       -1.14424500      -2.57478100       1.41724500
C        1.08180600       1.24594900      -0.03782400
N        1.25253600       2.00115000       1.09299600
H        0.56631000       1.97274400       1.83589300
H        1.76230300       2.87168500       0.99323100
H        1.39486700       1.71036900      -0.96277900
H        3.12533200      -0.00250600      -0.51097300
Cu       2.74795100       0.54274700       0.83225800
18
Properties=species:S:1:pos:R:3 energy=-1967.129713301679 pbc="F F F"
C       -1.78831800      -0.74051700      -1.36405200
C       -0.77736300       0.20356000      -1.24798900
C        0.06634300       0.19460500      -0.13099000
C       -0.08096800      -0.80880100       0.83692400
C       -1.06200000      -1.77526800       0.69022600
C       -1.92817900      -1.73346100      -0.40074200
H       -2.46256400      -0.70412200      -2.20939500
H       -2.70351100      -2.48201200      -0.50291200
H       -0.65635400       0.96543500      -2.00708400
H        0.60072700      -0.87009200       1.67690900
H       -1.14605600      -2.57048500       1.41918100
C        1.07333200       1.25235900      -0.03907400
N        1.25192100       1.99794800       1.09534300
H        0.57510100       1.95128100       1.84634900
H        1.74312900       2.87989500       0.99752700
H        1.38439000       1.72213200      -0.96267800
H        3.15458100      -0.04118300      -0.50335900
Cu       2.75579000       0.55872600       0.80581500
18
Properties=species:S:1:pos:R:3 energy=-1967.131799447988 pbc="F F F"
C       -1.78823400      -0.74120200      -1.36645100
C       -0.77892700       0.20395200      -1.25025500
C        0.06195100       0.19775600      -0.13148500
C       -0.08448500      -0.80346000       0.83884200
C       -1.06364300      -1.77139300       0.69192700
C       -1.92807500      -1.73224400      -0.40096900
H       -2.46089400      -0.70644100      -2.21261500
H       -2.70206300      -2.48172800      -0.50332900
H       -0.65675000       0.96619700      -2.00875600
H        0.59594300      -0.86127200       1.68032500
H       -1.14831900      -2.56563800       1.42161500
C        1.06050700       1.26027100      -0.04094400
N        1.25099200       1.99455300       1.09796100
H        0.59029400       1.92468300       1.86211600
H        1.71837500       2.88945200       1.00360800
H        1.37254200       1.73443500      -0.96222100
H        3.19888800      -0.09157100      -0.49093000
Cu       2.76189700       0.58365100       0.77156100
18
Properties=species:S:1:pos:R:3 energy=-1967.133679652296 pbc="F F F"
C       -1.78999200      -0.74089100      -1.36828100
C       -0.78208100       0.20525300      -1.25258400
C        0.05734400       0.20097200      -0.13279800
C       -0.08665000      -0.79926800       0.83931400
C       -1.06461600      -1.76800600       0.69262200
C       -1.92846600      -1.73040100      -0.40122600
H       -2.46240400      -0.70731600      -2.21480300
H       -2.70192200      -2.48040900      -0.50304900
H       -0.65830200       0.96761200      -2.01057300
H        0.59655300      -0.85515600       1.67864100
H       -1.14937200      -2.56174400       1.42294900
C        1.04732100       1.26844600      -0.04322900
N        1.24803800       1.99286000       1.09750400
H        0.60798800       1.89589800       1.87673200
H        1.68946500       2.90155200       1.00726000
H        1.35926500       1.74629600      -0.96327600
H        3.24247200      -0.14588000      -0.46534400
Cu       2.77535600       0.61018100       0.74014200
18
Properties=species:S:1:pos:R:3 energy=-1967.135354844761 pbc="F F F"
C       -1.79124900      -0.74221500      -1.37156000
C       -0.78533300       0.20591600      -1.25628100
C        0.05015300       0.20564700      -0.13331600
C       -0.09272700      -0.79205700       0.84149900
C       -1.06866800      -1.76266900       0.69544900
C       -1.92966000      -1.72883800      -0.40135000
H       -2.46041300      -0.71336500      -2.22096500
H       -2.70025500      -2.48147100      -0.50420800
H       -0.65825400       0.96670500      -2.01552000
H        0.59358800      -0.84338800       1.67877000
H       -1.15358000      -2.55529800       1.42701700
C        1.03148100       1.27756500      -0.04366700
N        1.24582700       1.99029000       1.09913500
H        0.63254000       1.86290000       1.89619400
H        1.66308000       2.91106200       1.01614600
H        1.34265500       1.75946800      -0.96197300
H        3.28934700      -0.19441900      -0.44411200
Cu       2.79146900       0.63416700       0.69874300
18
Properties=species:S:1:pos:R:3 energy=-1967.136862217353 pbc="F F F"
C       -1.78969700      -0.74838400      -1.37782200
C       -0.78683300       0.20383600      -1.26372000
C        0.04048000       0.21199500      -0.13328900
C       -0.10373400      -0.77978000       0.84632700
C       -1.07619100      -1.75499900       0.70080900
C       -1.93036900      -1.72815100      -0.40285700
H       -2.45285000      -0.72683500      -2.23263300
H       -2.69716000      -2.48548700      -0.50630900
H       -0.65576400       0.96075000      -2.02520000
H        0.58050200      -0.82295900       1.68580000
H       -1.16304100      -2.54330800       1.43556200
C        1.00990300       1.29037100      -0.04298500
N        1.25013000       1.98262500       1.10510800
H        0.67019800       1.82255400       1.92204400
H        1.64694800       2.91288500       1.03167600
H        1.31270900       1.78265800      -0.95875600
H        3.34188100      -0.23282600      -0.43249300
Cu       2.80288800       0.65505600       0.64873800
18
Properties=species:S:1:pos:R:3 energy=-1967.137590934953 pbc="F F F"
C       -1.77498100      -0.76295400      -1.39007400
C       -0.77993300       0.19479500      -1.26891600
C        0.03185200       0.21964500      -0.12788000
C       -0.12931800      -0.75965200       0.86480800
C       -1.09203700      -1.74097500       0.71195000
C       -1.92603700      -1.73488300      -0.40677300
H       -2.42486900      -0.75565500      -2.25445400
H       -2.68516800      -2.49851200      -0.51548300
H       -0.64564400       0.94565800      -2.03677900
H        0.53065200      -0.78359600       1.72381400
H       -1.18815400      -2.52226400       1.45416500
C        1.00209000       1.29489800      -0.03640400
N        1.27465000       1.95779600       1.12328300
H        0.69774300       1.79541900       1.94145800
H        1.67357100       2.88850300       1.05596700
H        1.28081700       1.81086700      -0.94687700
H        3.35346900      -0.19017900      -0.50746400
Cu       2.80129600       0.64108900       0.61566000
18
Properties=species:S:1:pos:R:3 energy=-1967.138547291781 pbc="F F F"
C       -1.77396300      -0.76686900      -1.39457000
C       -0.78095300       0.19287600      -1.27415700
C        0.02794900       0.22236000      -0.13072000
C       -0.13367600      -0.75351400       0.86533800
C       -1.09478100      -1.73618000       0.71370200
C       -1.92550900      -1.73511000      -0.40798700
H       -2.42290800      -0.76225800      -2.25985000
H       -2.68405500      -2.49954300      -0.51505300
H       -0.64686700       0.94319400      -2.04255300
H        0.52316000      -0.77166000       1.72693200
H       -1.19375300      -2.51344800       1.45957000
C        0.98930600       1.30225400      -0.03908500
N        1.28164800       1.95025300       1.12326300
H        0.72937000       1.76436300       1.95371600
H        1.66347100       2.88850600       1.06149900
H        1.25155700       1.83160000      -0.94691300
H        3.38399500      -0.21055700      -0.48842600
Cu       2.80601000       0.65373300       0.59529300
18
Properties=species:S:1:pos:R:3 energy=-1967.139392819076 pbc="F F F"
C       -1.77302900      -0.77077900      -1.39987900
C       -0.78268100       0.19117700      -1.27969500
C        0.02294900       0.22677100      -0.13369500
C       -0.13876100      -0.74629500       0.86621200
C       -1.09744700      -1.73041900       0.71538900
C       -1.92499300      -1.73583400      -0.40912800
H       -2.42100500      -0.77040400      -2.26584400
H       -2.68278700      -2.50112800      -0.51435900
H       -0.64838900       0.94057200      -2.04947200
H        0.51659500      -0.75943100       1.72913800
H       -1.19980600      -2.50302600       1.46618000
C        0.97483100       1.31197900      -0.04122100
N        1.28714700       1.94355200       1.12340000
H        0.76368400       1.72892700       1.96572400
H        1.65051800       2.88969900       1.06970700
H        1.22122600       1.85430000      -0.94625000
H        3.41837500      -0.23639500      -0.46677200
Cu       2.81357000       0.66673400       0.57056300
18
Properties=species:S:1:pos:R:3 energy=-1967.140133340899 pbc="F F F"
C       -1.76738100      -0.77847100      -1.40703700
C       -0.78166700       0.18762000      -1.28604100
C        0.01725600       0.23117200      -0.13517600
C       -0.14742200      -0.73612400       0.86972400
C       -1.10366800      -1.72230300       0.71997600
C       -1.92270800      -1.73685800      -0.41102400
H       -2.41045400      -0.78451800      -2.27659300
H       -2.67846900      -2.50440300      -0.51532300
H       -0.64618100       0.93461900      -2.05781500
H        0.50042100      -0.74120900       1.73829800
H       -1.21148700      -2.48781300       1.47663400
C        0.95942600       1.32157200      -0.04107100
N        1.29791500       1.93230800       1.12644900
H        0.80366500       1.69294600       1.97962300
H        1.64479200       2.88517400       1.08303200
H        1.18509800       1.88219100      -0.94032900
H        3.44520200      -0.25085200      -0.46445700
Cu       2.81566200       0.67494700       0.54113200
18
Properties=species:S:1:pos:R:3 energy=-1967.14074119722 pbc="F F F"
C       -1.75703500      -0.79090600      -1.41757400
C       -0.77781900       0.18080500      -1.29357000
C        0.00916800       0.23790500      -0.13414900
C       -0.16144300      -0.72403500       0.87652400
C       -1.11321600      -1.71219700       0.72554000
C       -1.92030300      -1.74077500      -0.41377600
H       -2.39192900      -0.80645200      -2.29257000
H       -2.67378000      -2.50992700      -0.51784000
H       -0.63828800       0.92251100      -2.06947400
H        0.47466700      -0.71890200       1.75345700
H       -1.23027400      -2.46855700       1.49061000
C        0.94001400       1.33378500      -0.03675500
N        1.31277800       1.91968200       1.13287700
H        0.85008400       1.65895300       1.99743100
H        1.65794900       2.87284100       1.09948500
H        1.14064800       1.91494500      -0.92881600
H        3.46242700      -0.24611000      -0.48386600
Cu       2.81635300       0.67643500       0.51246700
18
Properties=species:S:1:pos:R:3 energy=-1967.14110678187 pbc="F F F"
C       -1.74491800      -0.79921900      -1.42302100
C       -0.77198100       0.17843100      -1.29407800
C        0.00029800       0.24723000      -0.12531600
C       -0.18215300      -0.70468700       0.89236500
C       -1.12698100      -1.69948900       0.73694800
C       -1.91632400      -1.74200300      -0.41462600
H       -2.36460400      -0.82878700      -2.30873100
H       -2.66056100      -2.51986200      -0.52535000
H       -0.62270300       0.91245100      -2.07557700
H        0.44164300      -0.69124600       1.77812900
H       -1.24828200      -2.45206100       1.50444900
C        0.93302900       1.34064500      -0.02612700
N        1.31659800       1.90850000       1.14624800
H        0.86114600       1.62984700       2.00940000
H        1.64784400       2.86737400       1.12920000
H        1.13945300       1.92494300      -0.91478100
H        3.46684900      -0.24740900      -0.54978400
Cu       2.83164700       0.67534300       0.46065200
18
Properties=species:S:1:pos:R:3 energy=-1967.140432619293 pbc="F F F"
C       -1.74890100      -0.79159500      -1.41662800
C       -0.77303900       0.18364800      -1.28969600
C        0.00461200       0.24536900      -0.12501200
C       -0.17692400      -0.70615600       0.89205100
C       -1.12409400      -1.70016700       0.73799000
C       -1.91685100      -1.73741300      -0.41171400
H       -2.36895600      -0.81834900      -2.30200500
H       -2.65645000      -2.51940400      -0.52678100
H       -0.62741800       0.92207600      -2.06759500
H        0.45023900      -0.69629700       1.77580000
H       -1.24029000      -2.45767400       1.50053800
C        0.94061600       1.33689600      -0.02744400
N        1.30785700       1.91195200       1.14605900
H        0.83710200       1.63417900       2.00150100
H        1.60974000       2.88059300       1.13192900
H        1.16910600       1.91010300      -0.91806700
H        3.47424800      -0.27787400      -0.54241600
Cu       2.83940300       0.68011200       0.44149000
18
Properties=species:S:1:pos:R:3 energy=-1967.141072091874 pbc="F F F"
C       -1.74627700      -0.79639400      -1.42165800
C       -0.77321800       0.18074200      -1.29324600
C        0.00316100       0.24623000      -0.12720300
C       -0.17826700      -0.70600600       0.89083300
C       -1.12538600      -1.69896000       0.73698900
C       -1.91616100      -1.73987400      -0.41378200
H       -2.36727100      -0.82408000      -2.30635500
H       -2.65935300      -2.51820700      -0.52526900
H       -0.62853400       0.91891500      -2.07147800
H        0.44571300      -0.69445200       1.77626500
H       -1.24820800      -2.45075100       1.50500200
C        0.93185100       1.34221500      -0.02907600
N        1.31615800       1.90871100       1.14237300
H        0.86778200       1.61672800       2.00465000
H        1.61657900       2.87807300       1.12893700
H        1.13680500       1.93015200      -0.91597000
H        3.48258500      -0.27594200      -0.52854300
Cu       2.84204100       0.68290100       0.44753200
18
Properties=species:S:1:pos:R:3 energy=-1967.140641251195 pbc="F F F"
C       -1.74514000      -0.79635400      -1.41907800
C       -0.77022200       0.18010600      -1.29128400
C        0.00229100       0.24643300      -0.12321500
C       -0.18114400      -0.70416100       0.89429300
C       -1.12543500      -1.70089500       0.73849400
C       -1.91546700      -1.74045700      -0.41299900
H       -2.36405400      -0.82386500      -2.30539900
H       -2.65627600      -2.52153300      -0.52719700
H       -0.62023700       0.91435800      -2.07204200
H        0.44175800      -0.69035800       1.78097700
H       -1.24243100      -2.45725700       1.50207300
C        0.94303700       1.33489300      -0.02550000
N        1.31368600       1.90789400       1.15046300
H        0.83232900       1.64717600       2.00507700
H        1.64734500       2.86566100       1.13199300
H        1.16926200       1.90865800      -0.91617900
H        3.44769600      -0.23886700      -0.57002900
Cu       2.82300400       0.66856900       0.45955000
18
Properties=species:S:1:pos:R:3 energy=-1967.14123491085 pbc="F F F"
C       -1.73966700      -0.80388000      -1.42646800
C       -0.77019000       0.17634100      -1.29396100
C       -0.00555600       0.25182800      -0.12085400
C       -0.19218200      -0.69775500       0.89902000
C       -1.13366800      -1.69541600       0.74090800
C       -1.91618200      -1.74361100      -0.41509200
H       -2.35190000      -0.84052700      -2.31675000
H       -2.65643800      -2.52426400      -0.52881400
H       -0.61530100       0.90577000      -2.07924800
H        0.42751200      -0.68177900       1.78710500
H       -1.25633500      -2.44723200       1.50876500
C        0.92933900       1.34365600      -0.02052000
N        1.32043300       1.90453700       1.15219700
H        0.86875900       1.62499000       2.01629800
H        1.65806000       2.86188400       1.13888100
H        1.13610000       1.92885600      -0.90839900
H        3.46326300      -0.23738900      -0.57879100
Cu       2.83395400       0.67398900       0.44572300
18
Properties=species:S:1:pos:R:3 energy=-1967.141975357187 pbc="F F F"
C       -1.72296500      -0.82115300      -1.44018700
C       -0.76289400       0.16690800      -1.30228100
C       -0.01477900       0.25711700      -0.11829900
C       -0.20996300      -0.68514500       0.90706400
C       -1.14775900      -1.68481100       0.74787100
C       -1.91182200      -1.74878500      -0.42008500
H       -2.32438300      -0.86628900      -2.33768500
H       -2.65244500      -2.52935700      -0.53267000
H       -0.60291000       0.89242200      -2.08970200
H        0.39443400      -0.65688000       1.80524900
H       -1.28814100      -2.42043300       1.52857000
C        0.90485500       1.35696900      -0.01435900
N        1.34682000       1.88644700       1.15612100
H        0.94879300       1.57444400       2.03567900
H        1.66651300       2.84942700       1.15214300
H        1.07041000       1.97317700      -0.89012700
H        3.48236700      -0.22935800      -0.59318300
Cu       2.82387000       0.68530000       0.40588100
18
Properties=species:S:1:pos:R:3 energy=-1967.142221568765 pbc="F F F"
C       -1.71051700      -0.82887600      -1.44521500
C       -0.75570200       0.16332200      -1.30261800
C       -0.02064300       0.26253600      -0.11088600
C       -0.22732100      -0.67142800       0.92012700
C       -1.16155700      -1.67376700       0.75716800
C       -1.90947400      -1.74910900      -0.42074300
H       -2.29689500      -0.88486300      -2.35196700
H       -2.64287100      -2.53579300      -0.53903200
H       -0.58802500       0.88433700      -2.09219000
H        0.36415200      -0.63593400       1.82643000
H       -1.30884000      -2.40503400       1.54054500
C        0.89568100       1.36309300      -0.00660300
N        1.35739300       1.87488700       1.16303400
H        0.97951800       1.53840100       2.04256800
H        1.65148100       2.84595000       1.17550100
H        1.05355800       1.98810300      -0.87780000
H        3.48715900      -0.23413400      -0.63286900
Cu       2.83290300       0.69830700       0.35454800
18
Properties=species:S:1:pos:R:3 energy=-1967.142253559763 pbc="F F F"
C       -1.70272300      -0.83323100      -1.44719300
C       -0.75015600       0.16049000      -1.30026300
C       -0.02379800       0.26433700      -0.10372100
C       -0.23733800      -0.66671100       0.92839000
C       -1.16973600      -1.67052000       0.76169800
C       -1.90900200      -1.75015900      -0.42122500
H       -2.27958400      -0.89544800      -2.35961500
H       -2.64006500      -2.53860200      -0.54309600
H       -0.57488600       0.87703500      -2.09239100
H        0.34914300      -0.62920700       1.83789800
H       -1.31999300      -2.40168500       1.54454200
C        0.89702000       1.36212000       0.00105700
N        1.35921800       1.87243200       1.17110800
H        0.97383500       1.54302600       2.05015700
H        1.66512700       2.83989300       1.18282500
H        1.05966200       1.98467300      -0.87074900
H        3.47059800      -0.21396100      -0.67988000
Cu       2.83267800       0.69551700       0.34045800
18
Properties=species:S:1:pos:R:3 energy=-1967.142238877664 pbc="F F F"
C       -1.70089100      -0.83509800      -1.44780100
C       -0.74792600       0.15839800      -1.30004600
C       -0.02376300       0.26321500      -0.10224300
C       -0.23788500      -0.66822600       0.92901200
C       -1.17022000      -1.67241900       0.76142800
C       -1.90894700      -1.75161900      -0.42185200
H       -2.27742200      -0.89616000      -2.36052200
H       -2.64151700      -2.53870300      -0.54368400
H       -0.57073700       0.87333600      -2.09308100
H        0.34779400      -0.63011900       1.83911200
H       -1.32146200      -2.40317500       1.54434000
C        0.90074600       1.35901900       0.00264400
N        1.36027600       1.87253700       1.17416800
H        0.96435400       1.55947600       2.05423100
H        1.68729600       2.83290300       1.17725200
H        1.06630200       1.97893800      -0.87025500
H        3.45242700      -0.18698400      -0.69835500
Cu       2.82157500       0.68468400       0.35565200
18
Properties=species:S:1:pos:R:3 energy=-1967.142505544047 pbc="F F F"
C       -1.69139500      -0.84667800      -1.45455000
C       -0.74614700       0.15434600      -1.30174800
C       -0.03584100       0.26999900      -0.09503400
C       -0.25579400      -0.65758700       0.93768700
C       -1.18446000      -1.66631700       0.76668400
C       -1.90912900      -1.75426600      -0.42481900
H       -2.25408200      -0.92020200      -2.37574500
H       -2.63949600      -2.54428800      -0.54821000
H       -0.56062700       0.86255300      -2.09818900
H        0.32178000      -0.61396300       1.85212200
H       -1.34195700      -2.39211400       1.55180100
C        0.88529400       1.36803900       0.01260300
N        1.37171700       1.86378400       1.17835900
H        1.00414100       1.53780100       2.06565700
H        1.70767300       2.82253000       1.18664900
H        1.03442300       1.99760600      -0.85636200
H        3.46694300      -0.17108300      -0.72705400
Cu       2.82695800       0.68984100       0.33014900
18
Properties=species:S:1:pos:R:3 energy=-1967.142618552528 pbc="F F F"
C       -1.68589800      -0.85028400      -1.45800300
C       -0.74420600       0.15233000      -1.30274900
C       -0.03825000       0.27237300      -0.09392900
C       -0.26252700      -0.65308300       0.94108900
C       -1.18834900      -1.66159700       0.76902900
C       -1.90700800      -1.75654100      -0.42573500
H       -2.24562700      -0.92723700      -2.38040600
H       -2.63596800      -2.54675100      -0.54976600
H       -0.55642500       0.85962300      -2.10026500
H        0.30967000      -0.60474400       1.85926300
H       -1.35250800      -2.38315300       1.55806600
C        0.87744800       1.37265800       0.01483600
N        1.37464400       1.86148600       1.17828400
H        1.02612500       1.51451900       2.06690100
H        1.70226800       2.82113100       1.19478500
H        1.01725000       2.01015900      -0.85030800
H        3.47474400      -0.17821200      -0.73555500
Cu       2.83461800       0.69732100       0.31446300
18
Properties=species:S:1:pos:R:3 energy=-1967.142508744077 pbc="F F F"
C       -1.68183300      -0.85202400      -1.45827400
C       -0.73982200       0.15004000      -1.30090900
C       -0.03790300       0.27120700      -0.09014900
C       -0.26515900      -0.65361300       0.94487900
C       -1.19136400      -1.66219800       0.77020900
C       -1.90685400      -1.75726300      -0.42592200
H       -2.23801200      -0.92964800      -2.38283100
H       -2.63634300      -2.54698900      -0.55180600
H       -0.54842400       0.85554400      -2.09900800
H        0.30446400      -0.60486300       1.86406800
H       -1.35697900      -2.38424100       1.55857200
C        0.88308900       1.36862200       0.01859300
N        1.37487300       1.86065000       1.18363400
H        1.01247200       1.53171800       2.07246400
H        1.71994700       2.81543500       1.19178200
H        1.02861800       2.00174200      -0.84852300
H        3.45313000      -0.15077200      -0.76551000
Cu       2.82609800       0.68665300       0.31873300
18
Properties=species:S:1:pos:R:3 energy=-1967.142551249128 pbc="F F F"
C       -1.67798600      -0.85339300      -1.45881700
C       -0.73594600       0.14836900      -1.29980200
C       -0.03698700       0.27038700      -0.08772700
C       -0.26749200      -0.65302200       0.94784000
C       -1.19329500      -1.66186400       0.77175100
C       -1.90605200      -1.75791300      -0.42606400
H       -2.23148700      -0.93132200      -2.38460800
H       -2.63554300      -2.54703200      -0.55303800
H       -0.54216400       0.85287900      -2.09822200
H        0.29867600      -0.60275800       1.86923900
H       -1.36088100      -2.38338300       1.56012400
C        0.88682200       1.36601800       0.02007000
N        1.37729700       1.85914600       1.18701900
H        1.00595000       1.53801200       2.07467900
H        1.72639000       2.81193400       1.19240300
H        1.03473300       1.99803900      -0.84722100
H        3.43726700      -0.13470600      -0.78789300
Cu       2.82069600       0.68060900       0.32026600
18
Properties=species:S:1:pos:R:3 energy=-1967.142734119537 pbc="F F F"
C       -1.67599600      -0.85679700      -1.46132300
C       -0.73690600       0.14757100      -1.30139100
C       -0.04113700       0.27323600      -0.08757600
C       -0.27278900      -0.64849800       0.94912600
C       -1.19665400      -1.65881800       0.77313600
C       -1.90534800      -1.75923300      -0.42690700
H       -2.22694000      -0.93841600      -2.38820600
H       -2.63363100      -2.54949600      -0.55365900
H       -0.54260400       0.85105800      -2.10077500
H        0.28978600      -0.59462300       1.87261900
H       -1.36675600      -2.37763900       1.56321600
C        0.87831800       1.37136600       0.02133100
N        1.38177600       1.85525200       1.18596300
H        1.02718400       1.51963200       2.07512000
H        1.72556500       2.80974100       1.19775000
H        1.01702500       2.00987600      -0.84253300
H        3.45384500      -0.14046600      -0.78473500
Cu       2.82526400       0.68625400       0.30884400
18
Properties=species:S:1:pos:R:3 energy=-1967.14286912487 pbc="F F F"
C       -1.67110800      -0.85859700      -1.46178000
C       -0.73339200       0.14666500      -1.30057000
C       -0.04049500       0.27496200      -0.08541200
C       -0.27837700      -0.64237100       0.95434900
C       -1.20155900      -1.65318000       0.77681000
C       -1.90387700      -1.75858600      -0.42647100
H       -2.21609700      -0.94419000      -2.39180700
H       -2.62833500      -2.55213400      -0.55556400
H       -0.53786500       0.84886100      -2.10065900
H        0.27570900      -0.58608800       1.88290500
H       -1.37394000      -2.37047100       1.56761700
C        0.87919700       1.37290600       0.02202200
N        1.38777200       1.84913200       1.18742500
H        1.03684400       1.49769900       2.07194600
H        1.70832000       2.81168300       1.21239300
H        1.01210800       2.01746900      -0.83868200
H        3.45404900      -0.15041400      -0.79803300
Cu       2.83104500       0.69665400       0.28351500
18
Properties=species:S:1:pos:R:3 energy=-1967.142986483458 pbc="F F F"
C       -1.66773400      -0.86178100      -1.46428500
C       -0.73306500       0.14549800      -1.30197000
C       -0.04413800       0.27730100      -0.08500100
C       -0.28412100      -0.63760700       0.95684100
C       -1.20518200      -1.64952700       0.77900400
C       -1.90258800      -1.75964000      -0.42685100
H       -2.20947300      -0.95069400      -2.39585000
H       -2.62524300      -2.55440700      -0.55649300
H       -0.53597500       0.84711000      -2.10253000
H        0.26530500      -0.57582700       1.88780300
H       -1.38102200      -2.36387200       1.57212600
C        0.87198500       1.37658500       0.02391700
N        1.39182600       1.84361300       1.18719300
H        1.05712900       1.47788200       2.07244600
H        1.70491900       2.80822500       1.21924800
H        0.99847800       2.02733400      -0.83322000
H        3.46650000      -0.15487800      -0.79862800
Cu       2.83239800       0.70468500       0.26625000
18
Properties=species:S:1:pos:R:3 energy=-1967.143067854068 pbc="F F F"
C       -1.66249200      -0.86591700      -1.46648900
C       -0.73039800       0.14336500      -1.30197400
C       -0.04721800       0.27887200      -0.08201400
C       -0.29083000      -0.63377000       0.96088000
C       -1.21048400      -1.64683400       0.78147900
C       -1.90167600      -1.76091000      -0.42761100
H       -2.19898500      -0.95848000      -2.40076400
H       -2.62335100      -2.55644300      -0.55840400
H       -0.52982300       0.84290700      -2.10341900
H        0.25366400      -0.56855800       1.89447100
H       -1.39023400      -2.35867300       1.57590400
C        0.86846100       1.37820600       0.02776900
N        1.39556600       1.83960400       1.18979300
H        1.06707200       1.47073800       2.07604000
H        1.71242800       2.80294700       1.22335000
H        0.99130600       2.03216000      -0.82738400
H        3.46583400      -0.14443800      -0.81696700
Cu       2.83115800       0.70522300       0.25534200
18
Properties=species:S:1:pos:R:3 energy=-1967.143151970075 pbc="F F F"
C       -1.65699100      -0.87046400      -1.46893700
C       -0.72786800       0.14108200      -1.30217600
C       -0.05060000       0.28074900      -0.07918000
C       -0.29825600      -0.62934400       0.96504200
C       -1.21618800      -1.64369100       0.78402700
C       -1.90057000      -1.76250800      -0.42848800
H       -2.18817000      -0.96691500      -2.40586700
H       -2.62098500      -2.55901500      -0.56042400
H       -0.52410000       0.83855100      -2.10462300
H        0.24015200      -0.56010700       1.90184900
H       -1.40039200      -2.35248000       1.58013800
C        0.86401300       1.38051500       0.03157400
N        1.40022400       1.83497500       1.19181500
H        1.08066500       1.46050600       2.07895200
H        1.71928200       2.79751500       1.22804400
H        0.98129300       2.03903000      -0.82083000
H        3.46798400      -0.13433600      -0.83450200
Cu       2.83050700       0.70593700       0.24358600
18
Properties=species:S:1:pos:R:3 energy=-1967.143265686662 pbc="F F F"
C       -1.65110200      -0.87541000      -1.47153500
C       -0.72540700       0.13877400      -1.30236600
C       -0.05454900       0.28299800      -0.07611000
C       -0.30672900      -0.62415400       0.96964000
C       -1.22258400      -1.64007400       0.78684500
C       -1.89928100      -1.76430900      -0.42945900
H       -2.17643900      -0.97618600      -2.41131500
H       -2.61796600      -2.56219000      -0.56272200
H       -0.51833000       0.83407400      -2.10582700
H        0.22460600      -0.55038800       1.91011200
H       -1.41165500      -2.34546200       1.58478700
C        0.85864400       1.38334500       0.03565700
N        1.40541400       1.82974400       1.19356100
H        1.09719100       1.44739800       2.08133600
H        1.72550400       2.79180100       1.23363900
H        0.96945700       2.04717500      -0.81347900
H        3.47249900      -0.12489500      -0.85225300
Cu       2.83072700       0.70775900       0.22948800
18
Properties=species:S:1:pos:R:3 energy=-1967.143343169864 pbc="F F F"
C       -1.64531900      -0.88044400      -1.47416100
C       -0.72320700       0.13652700      -1.30269300
C       -0.05890900       0.28521800      -0.07316500
C       -0.31546400      -0.61882500       0.97416900
C       -1.22916000      -1.63646100       0.78973900
C       -1.89793400      -1.76614800      -0.43042400
H       -2.16470600      -0.98548100      -2.41679900
H       -2.61458200      -2.56566300      -0.56514900
H       -0.51287500       0.82979600      -2.10702200
H        0.20877400      -0.53995400       1.91816100
H       -1.42316000      -2.33831200       1.58956200
C        0.85260300       1.38618400       0.03988500
N        1.41053300       1.82406700       1.19509900
H        1.11518900       1.43358000       2.08368200
H        1.73218400       2.78544300       1.23862200
H        0.95703500       2.05570900      -0.80554900
H        3.47853300      -0.11554500      -0.86872300
Cu       2.83046700       0.71030900       0.21476500
18
Properties=species:S:1:pos:R:3 energy=-1967.143442204542 pbc="F F F"
C       -1.63933700      -0.88555900      -1.47669600
C       -0.72114500       0.13436000      -1.30268500
C       -0.06334400       0.28784800      -0.06997700
C       -0.32477500      -0.61307200       0.97899700
C       -1.23602700      -1.63250200       0.79260600
C       -1.89649900      -1.76821800      -0.43142100
H       -2.15259400      -0.99517300      -2.42216800
H       -2.61080700      -2.56956900      -0.56770100
H       -0.50777200       0.82553500      -2.10800900
H        0.19151500      -0.52941000       1.92691800
H       -1.43515500      -2.33077800       1.59427400
C        0.84667200       1.38940100       0.04399100
N        1.41646400       1.81821500       1.19612100
H        1.13401500       1.41835500       2.08469300
H        1.73782800       2.77952200       1.24453800
H        0.94363000       2.06500800      -0.79753600
H        3.48576500      -0.10645000      -0.88570000
Cu       2.83156500       0.71248600       0.19975700
18
Properties=species:S:1:pos:R:3 energy=-1967.143521596298 pbc="F F F"
C       -1.63321200      -0.89068100      -1.47911400
C       -0.71913000       0.13236800      -1.30241200
C       -0.06816600       0.29058200      -0.06639500
C       -0.33458100      -0.60716500       0.98409000
C       -1.24327400      -1.62853200       0.79560200
C       -1.89506400      -1.77026200      -0.43239900
H       -2.13989200      -1.00514100      -2.42755300
H       -2.60690200      -2.57357000      -0.57035900
H       -0.50231700       0.82141100      -2.10860100
H        0.17405100      -0.51873800       1.93566600
H       -1.44751800      -2.32340900       1.59887100
C        0.84057000       1.39248700       0.04847500
N        1.42183600       1.81249200       1.19732500
H        1.15223400       1.40327800       2.08559900
H        1.74395600       2.77332600       1.25049100
H        0.93089800       2.07345600      -0.78943900
H        3.49311800      -0.09712000      -0.90377200
Cu       2.83339200       0.71521800       0.18392500
18
Properties=species:S:1:pos:R:3 energy=-1967.143581964657 pbc="F F F"
C       -1.62739100      -0.89556600      -1.48134800
C       -0.71731400       0.13045700      -1.30209700
C       -0.07291400       0.29312800      -0.06299300
C       -0.34398600      -0.60169200       0.98887100
C       -1.25026200      -1.62485200       0.79843500
C       -1.89375900      -1.77227300      -0.43327500
H       -2.12777100      -1.01462500      -2.43257200
H       -2.60318600      -2.57744400      -0.57289200
H       -0.49714900       0.81751700      -2.10908300
H        0.15766700      -0.50864100       1.94363500
H       -1.45945600      -2.31651300       1.60319100
C        0.83482100       1.39521200       0.05294000
N        1.42666100       1.80694900       1.19851500
H        1.16880400       1.38986500       2.08666500
H        1.75117300       2.76682000       1.25539900
H        0.91943300       2.08103100      -0.78164600
H        3.49992300      -0.08675700      -0.92138000
Cu       2.83470600       0.71738300       0.16963400
18
Properties=species:S:1:pos:R:3 energy=-1967.143632468437 pbc="F F F"
C       -1.62174800      -0.90039600      -1.48345200
C       -0.71573800       0.12868500      -1.30179000
C       -0.07776800       0.29575700      -0.05971100
C       -0.35342000      -0.59613200       0.99350800
C       -1.25718000      -1.62118500       0.80121800
C       -1.89239400      -1.77433000      -0.43409700
H       -2.11592800      -1.02401100      -2.43733800
H       -2.59923300      -2.58152000      -0.57533800
H       -0.49241100       0.81380300      -2.10955100
H        0.14122200      -0.49836900       1.95137800
H       -1.47120600      -2.30963500       1.60743100
C        0.82913100       1.39789800       0.05726500
N        1.43149900       1.80117100       1.19959000
H        1.18498800       1.37645500       2.08734500
H        1.75865600       2.75996000       1.26016100
H        0.90833300       2.08854300      -0.77387000
H        3.50724800      -0.07604800      -0.93848600
Cu       2.83594900       0.71935400       0.15573700
18
Properties=species:S:1:pos:R:3 energy=-1967.143655234469 pbc="F F F"
C       -1.61600900      -0.90530000      -1.48549500
C       -0.71425800       0.12697500      -1.30138400
C       -0.08287800       0.29854600      -0.05631400
C       -0.36329700      -0.59034000       0.99825500
C       -1.26428200      -1.61746800       0.80401600
C       -1.89090400      -1.77653800      -0.43492900
H       -2.10385700      -1.03353800      -2.44202800
H       -2.59490200      -2.58593200      -0.57788000
H       -0.48774000       0.81012400      -2.10992000
H        0.12383700      -0.48763400       1.95935700
H       -1.48316900      -2.30267500       1.61166500
C        0.82333100       1.40063200       0.06170600
N        1.43657400       1.79510400       1.20055300
H        1.20165600       1.36259000       2.08768000
H        1.76643900       2.75276300       1.26493300
H        0.89726700       2.09615200      -0.76585400
H        3.51499600      -0.06500100      -0.95576000
Cu       2.83719600       0.72153900       0.14140000
18
Properties=species:S:1:pos:R:3 energy=-1967.143655120802 pbc="F F F"
C       -1.61070300      -0.91052100      -1.48762100
C       -0.71358000       0.12537500      -1.30138900
C       -0.08863600       0.30161300      -0.05333800
C       -0.37372500      -0.58426500       1.00249600
C       -1.27150600      -1.61385700       0.80658100
C       -1.88935500      -1.77923700      -0.43592200
H       -2.09259900      -1.04348700      -2.44655400
H       -2.59017200      -2.59116500      -0.58038500
H       -0.48448800       0.80648200      -2.11092300
H        0.10531800      -0.47587000       1.96689000
H       -1.49521200      -2.29542800       1.61590900
C        0.81683900       1.40365700       0.06633700
N        1.44218000       1.78854400       1.20121300
H        1.22088400       1.34786800       2.08780300
H        1.77583000       2.74474300       1.26895000
H        0.88514500       2.10478700      -0.75692300
H        3.52546800      -0.05326500      -0.97077700
Cu       2.83831200       0.72402600       0.12765500
18
Properties=species:S:1:pos:R:3 energy=-1967.143638012442 pbc="F F F"
C       -1.60367900      -0.91497500      -1.48924900
C       -0.70990000       0.12301500      -1.29912100
C       -0.09124300       0.30219100      -0.04801400
C       -0.38419800      -0.58159500       1.00795100
C       -1.27992400      -1.61223900       0.80856000
C       -1.88818500      -1.78222800      -0.43786500
H       -2.07881800      -1.05095300      -2.45113300
H       -2.58652500      -2.59575800      -0.58528700
H       -0.47757200       0.80260100      -2.10899800
H        0.08381800      -0.46899300       1.97695600
H       -1.50952600      -2.29067500       1.61890600
C        0.81578500       1.40359500       0.07123100
N        1.45266300       1.78408600       1.20202900
H        1.24064700       1.34174800       2.09024000
H        1.78238200       2.74163400       1.27108200
H        0.87715300       2.10866600      -0.74939800
H        3.52028900      -0.04255000      -0.99006100
Cu       2.83683100       0.73243000       0.11217200
