18
Coordinates from ORCA-job orca_NEB-CI_converged E -1967.120575269787
  C          -1.76297383427268     -0.71914473269488     -1.35595033078329
  C          -0.73120616425682      0.20584599333419     -1.24827729081674
  C           0.14157480744849      0.15354320502674     -0.16206545571693
  C          -0.02781447822146     -0.82859908753955      0.81638016710845
  C          -1.04830519600912     -1.75744028841964      0.70000603237932
  C          -1.91541296153391     -1.70823489160889     -0.38896421149775
  H          -2.43960659926116     -0.67327032483624     -2.19851003117509
  H          -2.69722685587656     -2.44826967481377     -0.48957482908474
  H          -0.60576721373864      0.97175476942989     -2.00490633572514
  H           0.66369511006614     -0.88711295880820      1.64940740538449
  H          -1.15575749022436     -2.53246494287070      1.44780925143950
  C           1.22662369582813      1.15449657936260     -0.07596996055116
  N           1.29985515786581      1.95295489465359      1.09011206480033
  H           0.58268443242807      1.81322986106624      1.78690362312428
  H           1.56559855674713      2.91840319850673      0.95211275027163
  H           1.40943464088214      1.70694919090341     -0.98665311439149
  H           2.59540473684873      0.06834220985555     -0.46297258690604
  Cu          2.89919965528008      0.60901699945294      0.93111285214037
