18
Coordinates from ORCA-job orca E -1967.122107210181
  C          -1.65687437406725     -0.82796481920559     -1.43681479818065
  C          -0.63879153264505      0.10822615985166     -1.31399801101242
  C           0.11847611395098      0.17309427345046     -0.14265497516192
  C          -0.14487172978041     -0.72073242455043      0.89868638939924
  C          -1.16132518513184     -1.65600485231655      0.77196529828722
  C          -1.92005952539078     -1.71106947174137     -0.39481393513352
  H          -2.24403957125980     -0.86727578298860     -2.34495812936891
  H          -2.71120905557584     -2.44324122966601     -0.49124869225916
  H          -0.43237961869455      0.79633378787301     -2.12454667850355
  H           0.45237099660586     -0.70758575712423      1.80265581831570
  H          -1.35948751139038     -2.34641487976136      1.58133146379315
  C           1.16408601805091      1.20953782976591     -0.04221831203356
  N           1.40985979349201      1.81219269825114      1.21097361529662
  H           0.87545700048426      1.47128974284160      1.99795750088764
  H           1.53277836358791      2.81534499557674      1.20624226554351
  H           1.19258064550240      1.91056513114737     -0.86428175409799
  H           2.47295021248284      0.29974768365139     -0.83925265082075
  Cu          3.05047895977872      0.68395691494489      0.52497558504933
