18
Coordinates from ORCA-job orca_NEB-CI_converged E -1967.119835710009
  C          -1.76850425538495     -0.71991471885419     -1.34878641693268
  C          -0.74031810029859      0.21028774593633     -1.23732693539542
  C           0.13710141492096      0.15807831561760     -0.15303131858977
  C          -0.02751873039671     -0.83591376789900      0.81576293181459
  C          -1.04151830915280     -1.77332424615210      0.69212374774255
  C          -1.91363230588955     -1.71821349430205     -0.39287469063062
  H          -2.44805660720513     -0.67012124291342     -2.18967816627777
  H          -2.69583216217053     -2.45943388102035     -0.49586073252026
  H          -0.62201216453242      0.97909459806542     -1.99049674263707
  H           0.66042177763500     -0.90399306600660      1.65113897601905
  H          -1.13937271806024     -2.56010346968108      1.42891789812403
  C           1.22175461139880      1.16516416790096     -0.06955961883697
  N           1.29020712522410      1.97188893546334      1.08496289467258
  H           0.53965256954834      1.88554433258153      1.75654361486757
  H           1.63003248697894      2.91551815304530      0.95571217844912
  H           1.42976562948471      1.69604966845212     -0.98769692478283
  H           2.62703126227855      0.10666438772557     -0.48302933745129
  Cu          2.86079847562151      0.55272758204062      0.96317864236518
