18
Properties=species:S:1:pos:R:3 energy=-1967.196362870513 pbc="F F F"
C       -1.92075700      -0.56085600      -1.00279900
C       -0.82501000       0.29236400      -1.10877300
C        0.33599900       0.03932900      -0.38500000
C        0.39060100      -1.09386100       0.44347200
C       -0.71007300      -1.94033200       0.55634600
C       -1.86956500      -1.66940800      -0.16466600
H       -2.81845000      -0.35424000      -1.57134600
H       -2.72475100      -2.32750600      -0.08238800
H       -0.87525500       1.16212900      -1.75258500
H        1.31877100      -1.34559100       0.95045500
H       -0.65259700      -2.81695500       1.18855200
C        1.48363800       1.01507800      -0.37329300
N        1.38093500       1.86137600       0.85776900
H        0.76118300       2.64894400       0.68357000
H        2.28599100       2.25493700       1.09913000
H        1.48081200       1.63994300      -1.26671200
H        2.43423000       0.48606100      -0.32176600
Cu       0.52429900       0.70858800       2.25003300
18
Properties=species:S:1:pos:R:3 energy=-1967.196350800294 pbc="F F F"
C       -1.92057400      -0.56546300      -1.00998500
C       -0.82668200       0.29059300      -1.11182600
C        0.33171600       0.04179800      -0.38250700
C        0.38509500      -1.08929200       0.44856600
C       -0.71426100      -1.93766400       0.55886700
C       -1.87075900      -1.67179600      -0.16903400
H       -2.81551500      -0.36308000      -1.58449200
H       -2.72431100      -2.33244000      -0.09009800
H       -0.87586400       1.15870700      -1.75797500
H        1.31170100      -1.33901400       0.95967400
H       -0.65819700      -2.81218500       1.19401000
C        1.47922500       1.01756000      -0.37376100
N        1.38830700       1.85889000       0.86152000
H        0.76473700       2.64548000       0.69691100
H        2.29532600       2.25427900       1.09283900
H        1.46842200       1.64681700      -1.26406800
H        2.43035400       0.48851600      -0.33359400
Cu       0.55128100       0.70829400       2.26495100
18
Properties=species:S:1:pos:R:3 energy=-1967.196330482393 pbc="F F F"
C       -1.92045300      -0.56966100      -1.01698800
C       -0.82811600       0.28889400      -1.11514800
C        0.32763000       0.04410800      -0.38046500
C        0.37956800      -1.08487600       0.45316200
C       -0.71845100      -1.93501900       0.56098500
C       -1.87200100      -1.67393000      -0.17324000
H       -2.81276000      -0.37113500      -1.59691900
H       -2.72416500      -2.33674000      -0.09730200
H       -0.87622700       1.15534200      -1.76361500
H        1.30457600      -1.33237300       0.96849700
H       -0.66367000      -2.80754000       1.19901600
C        1.47513800       1.01967100      -0.37403500
N        1.39473600       1.85645700       0.86492500
H        0.76608300       2.64094900       0.70949700
H        2.30283700       2.25531300       1.08603000
H        1.45779500       1.65287800      -1.26145800
H        2.42657600       0.49043300      -0.34360800
Cu       0.58090500       0.70723000       2.28066700
18
Properties=species:S:1:pos:R:3 energy=-1967.19628547514 pbc="F F F"
C       -1.92035600      -0.57346200      -1.02368500
C       -0.82946100       0.28729300      -1.11852300
C        0.32372700       0.04617500      -0.37879000
C        0.37413400      -1.08080000       0.45708200
C       -0.72255800      -1.93263400       0.56267300
C       -1.87338600      -1.67576900      -0.17737200
H       -2.81022300      -0.37842300      -1.60856100
H       -2.72431800      -2.34048200      -0.10402200
H       -0.87641600       1.15214400      -1.76923700
H        1.29753200      -1.32610100       0.97652900
H       -0.66896400      -2.80325300       1.20338400
C        1.47141200       1.02133300      -0.37401800
N        1.40007800       1.85429300       0.86794800
H        0.76559800       2.63578900       0.72099900
H        2.30861100       2.25787500       1.07894600
H        1.44894100       1.65794600      -1.25892200
H        2.42292400       0.49178900      -0.35158600
Cu       0.61272600       0.70628600       2.29715600
18
Properties=species:S:1:pos:R:3 energy=-1967.196228747381 pbc="F F F"
C       -1.92032200      -0.57700600      -1.03014000
C       -0.83069100       0.28576600      -1.12185300
C        0.31997700       0.04800400      -0.37725800
C        0.36878700      -1.07715300       0.46051200
C       -0.72660600      -1.93050100       0.56399800
C       -1.87480900      -1.67751600      -0.18142600
H       -2.80781400      -0.38516500      -1.61966400
H       -2.72466600      -2.34387800      -0.11046700
H       -0.87644900       1.14909500      -1.77465700
H        1.29060500      -1.32035900       0.98393800
H       -0.67417900      -2.79934700       1.20721800
C        1.46788000       1.02271500      -0.37377600
N        1.40478800       1.85234500       0.87073900
H        0.76415100       2.63036300       0.73174200
H        2.31324600       2.26129500       1.07171800
H        1.44106000       1.66236100      -1.25639800
H        2.41939600       0.49282400      -0.35833800
Cu       0.64564700       0.70615600       2.31411200
18
Properties=species:S:1:pos:R:3 energy=-1967.196227355636 pbc="F F F"
C       -1.92020000      -0.58047200      -1.03653000
C       -0.83182900       0.28423800      -1.12501500
C        0.31631200       0.04974000      -0.37558800
C        0.36355300      -1.07368800       0.46402300
C       -0.73070400      -1.92844000       0.56532900
C       -1.87625900      -1.67917400      -0.18548300
H       -2.80525700      -0.39175700      -1.63069600
H       -2.72504300      -2.34715600      -0.11690000
H       -0.87629100       1.14610800      -1.77982100
H        1.28378100      -1.31502300       0.99132300
H       -0.67957000      -2.79556100       1.21099400
C        1.46438100       1.02407800      -0.37348400
N        1.40946000       1.85046700       0.87344600
H        0.76252600       2.62473800       0.74252000
H        2.31762200       2.26506300       1.06432000
H        1.43309500       1.66670700      -1.25382300
H        2.41589600       0.49394800      -0.36507700
Cu       0.67852600       0.70618400       2.33046200
18
Properties=species:S:1:pos:R:3 energy=-1967.196181623715 pbc="F F F"
C       -1.91989900      -0.58393200      -1.04291300
C       -0.83280100       0.28269100      -1.12805100
C        0.31273900       0.05153700      -0.37369800
C        0.35840700      -1.07008500       0.46800900
C       -0.73487700      -1.92613400       0.56701900
C       -1.87762300      -1.68072800      -0.18940100
H       -2.80238000      -0.39843000      -1.64191300
H       -2.72532600      -2.35035400      -0.12331500
H       -0.87589500       1.14310700      -1.78486300
H        1.27703300      -1.30976900       0.99911500
H       -0.68527300      -2.79148400       1.21518400
C        1.46086900       1.02565700      -0.37330000
N        1.41441800       1.84850600       0.87615700
H        0.76103700       2.61882700       0.75384200
H        2.32207600       2.26892100       1.05680900
H        1.42456400       1.67137700      -1.25121600
H        2.41240500       0.49544100      -0.37249000
Cu       0.71052600       0.70485100       2.34502800
18
Properties=species:S:1:pos:R:3 energy=-1967.196128883994 pbc="F F F"
C       -1.91944000      -0.58732500      -1.04920600
C       -0.83357000       0.28116300      -1.13103600
C        0.30932700       0.05340100      -0.37172800
C        0.35335500      -1.06627300       0.47236000
C       -0.73907400      -1.92352600       0.56907700
C       -1.87889200      -1.68210700      -0.19307700
H       -2.79925700      -0.40505400      -1.65310400
H       -2.72553400      -2.35334500      -0.12951800
H       -0.87524300       1.14010100      -1.78989300
H        1.27038500      -1.30450000       1.00721700
H       -0.69117100      -2.78705100       1.21981000
C        1.45744600       1.02743500      -0.37321900
N        1.41945400       1.84648500       0.87881300
H        0.75938100       2.61252400       0.76552000
H        2.32626700       2.27304000       1.04930700
H        1.41586800       1.67623600      -1.24865300
H        2.40900100       0.49722100      -0.38023400
Cu       0.74169800       0.70157600       2.35756300
18
Properties=species:S:1:pos:R:3 energy=-1967.196076001845 pbc="F F F"
C       -1.91891200      -0.59050800      -1.05528700
C       -0.83417800       0.27968100      -1.13398600
C        0.30607900       0.05524900      -0.36979800
C        0.34838800      -1.06242500       0.47676500
C       -0.74325100      -1.92081900       0.57121900
C       -1.88013000      -1.68329900      -0.19658600
H       -2.79606600      -0.41135000      -1.66389200
H       -2.72576100      -2.35607000      -0.13545100
H       -0.87438700       1.13715300      -1.79483900
H        1.26379900      -1.29930400       1.01540800
H       -0.69706500      -2.78257700       1.22447700
C        1.45422800       1.02919700      -0.37312900
N        1.42421000       1.84454000       0.88129500
H        0.75712200       2.60585400       0.77703900
H        2.32972800       2.27776100       1.04182900
H        1.40765600       1.68087400      -1.24620700
H        2.40576400       0.49899800      -0.38753900
Cu       0.77277700       0.69704400       2.36868500
18
Properties=species:S:1:pos:R:3 energy=-1967.195968467 pbc="F F F"
C       -1.91836100      -0.59348000      -1.06111700
C       -0.83469700       0.27827500      -1.13685000
C        0.30299100       0.05696400      -0.36795000
C        0.34347000      -1.05879900       0.48091900
C       -0.74738100      -1.91831300       0.57315800
C       -1.88140400      -1.68439300      -0.20006900
H       -2.79304300      -0.41712200      -1.67412500
H       -2.72608300      -2.35855600      -0.14120600
H       -0.87340900       1.13432300      -1.79961500
H        1.25719200      -1.29422100       1.02354900
H       -0.70285400      -2.77838200       1.22872900
C        1.45123300       1.03073000      -0.37294100
N        1.42849200       1.84278300       0.88354900
H        0.75412900       2.59888700       0.78807300
H        2.33228100       2.28321300       1.03432200
H        1.40024100       1.68498600      -1.24385300
H        2.40268400       0.50053900      -0.39394500
Cu       0.80451900       0.69256800       2.37937100
18
Properties=species:S:1:pos:R:3 energy=-1967.19592993027 pbc="F F F"
C       -1.91790000      -0.59621000      -1.06674600
C       -0.83515000       0.27690400      -1.13962100
C        0.30000800       0.05842200      -0.36620700
C        0.33862300      -1.05559900       0.48464800
C       -0.75143700      -1.91615700       0.57465500
C       -1.88269900      -1.68550500      -0.20359400
H       -2.79020900      -0.42236800      -1.68383700
H       -2.72659900      -2.36086400      -0.14688400
H       -0.87238300       1.13167800      -1.80413600
H        1.25047000      -1.28929700       1.03149000
H       -0.70853400      -2.77464800       1.23240100
C        1.44842000       1.03195500      -0.37255700
N        1.43229500       1.84121700       0.88562300
H        0.75048100       2.59168800       0.79852700
H        2.33392600       2.28931000       1.02671600
H        1.39359600       1.68849600      -1.24155000
H        2.39973900       0.50172900      -0.39937900
Cu       0.83735200       0.68924900       2.39045100
18
Properties=species:S:1:pos:R:3 energy=-1967.195819551654 pbc="F F F"
C       -1.91752400      -0.59875900      -1.07222600
C       -0.83555500       0.27555700      -1.14233100
C        0.29713600       0.05963400      -0.36460100
C        0.33382100      -1.05288900       0.48783000
C       -0.75544600      -1.91438600       0.57567500
C       -1.88406800      -1.68665400      -0.20720200
H       -2.78757900      -0.42714800      -1.69306300
H       -2.72730800      -2.36301200      -0.15248500
H       -0.87132600       1.12916300      -1.80840400
H        1.24361800      -1.28457000       1.03916200
H       -0.71409900      -2.77139700       1.23549300
C        1.44573400       1.03284900      -0.37200100
N        1.43567300       1.83977100       0.88759500
H        0.74631100       2.58433600       0.80844800
H        2.33475500       2.29590000       1.01904900
H        1.38761500       1.69146100      -1.23923600
H        2.39693600       0.50261300      -0.40393900
Cu       0.87130800       0.68753200       2.40223500
18
Properties=species:S:1:pos:R:3 energy=-1967.195733284133 pbc="F F F"
C       -1.91713600      -0.60121600      -1.07755300
C       -0.83595100       0.27419200      -1.14500600
C        0.29439400       0.06057800      -0.36309200
C        0.32908400      -1.05057200       0.49054400
C       -0.75941100      -1.91293600       0.57640400
C       -1.88554600      -1.68777400      -0.21090800
H       -2.78509400      -0.43157700      -1.70197700
H       -2.72820100      -2.36499600      -0.15798500
H       -0.87021800       1.12675000      -1.81252700
H        1.23666700      -1.28008100       1.04649700
H       -0.71961000      -2.76845900       1.23815400
C        1.44316400       1.03346100      -0.37131400
N        1.43864900       1.83842400       0.88948800
H        0.74176300       2.57676900       0.81804100
H        2.33493400       2.30286100       1.01136800
H        1.38208100       1.69406100      -1.23686800
H        2.39425300       0.50330700      -0.40788500
Cu       0.90617800       0.68720800       2.41461900
18
Properties=species:S:1:pos:R:3 energy=-1967.195646402769 pbc="F F F"
C       -1.91679700      -0.60357200      -1.08292400
C       -0.83619700       0.27280900      -1.14768200
C        0.29175100       0.06135700      -0.36165900
C        0.32437000      -1.04855400       0.49304200
C       -0.76345300      -1.91156900       0.57695300
C       -1.88706700      -1.68887600      -0.21457500
H       -2.78257000      -0.43585600      -1.71085900
H       -2.72927400      -2.36678800      -0.16341500
H       -0.86897300       1.12433400      -1.81659900
H        1.22972900      -1.27591500       1.05354200
H       -0.72525900      -2.76565000       1.24069700
C        1.44062200       1.03397300      -0.37049400
N        1.44146200       1.83706000       0.89143100
H        0.73681000       2.56881700       0.82765400
H        2.33446400       2.31022400       1.00354600
H        1.37668400       1.69648300      -1.23442500
H        2.39164000       0.50393500      -0.41154800
Cu       0.94205800       0.68778800       2.42731400
18
Properties=species:S:1:pos:R:3 energy=-1967.195581734069 pbc="F F F"
C       -1.91635500      -0.60587200      -1.08832500
C       -0.83635100       0.27138700      -1.15035900
C        0.28919300       0.06201200      -0.36018400
C        0.31975100      -1.04666500       0.49557900
C       -0.76757000      -1.91014000       0.57758200
C       -1.88867300      -1.68978100      -0.21820300
H       -2.77985500      -0.44007300      -1.71989100
H       -2.73049300      -2.36833400      -0.16876100
H       -0.86747000       1.12188500      -1.82067100
H        1.22298200      -1.27221700       1.06032400
H       -0.73121100      -2.76276100       1.24334300
C        1.43807800       1.03439900      -0.36964000
N        1.44410000       1.83568000       0.89339300
H        0.73138200       2.56034500       0.83752700
H        2.33339400       2.31810000       0.99557800
H        1.37125200       1.69885400      -1.23189600
H        2.38907400       0.50462500      -0.41512000
Cu       0.97877100       0.68855700       2.43972300
18
Properties=species:S:1:pos:R:3 energy=-1967.195474499859 pbc="F F F"
C       -1.91576100      -0.60808700      -1.09374500
C       -0.83634300       0.26995900      -1.15297800
C        0.28668900       0.06264400      -0.35861000
C        0.31523600      -1.04477600       0.49840500
C       -0.77184800      -1.90850100       0.57848700
C       -1.89030300      -1.69045700      -0.22169300
H       -2.77683500      -0.44424800      -1.72907200
H       -2.73174800      -2.36959000      -0.17401000
H       -0.86561000       1.11938200      -1.82473400
H        1.21654700      -1.26894100       1.06705200
H       -0.73750900      -2.75964700       1.24626000
C        1.43557200       1.03484600      -0.36880100
N        1.44661900       1.83431800       0.89528800
H        0.72547400       2.55125100       0.84778000
H        2.33168600       2.32653900       0.98750700
H        1.36569200       1.70125100      -1.22933200
H        2.38659900       0.50547100      -0.41876600
Cu       1.01584300       0.68858500       2.45096300
18
Properties=species:S:1:pos:R:3 energy=-1967.195403145694 pbc="F F F"
C       -1.91507500      -0.61020200      -1.09906800
C       -0.83611400       0.26855500      -1.15556400
C        0.28438600       0.06325800      -0.35697600
C        0.31080800      -1.04274900       0.50150900
C       -0.77611000      -1.90667500       0.57962800
C       -1.89188400      -1.69096700      -0.22499500
H       -2.77370500      -0.44827800      -1.73821300
H       -2.73301500      -2.37062600      -0.17911800
H       -0.86349300       1.11686600      -1.82881000
H        1.21022900      -1.26572400       1.07388000
H       -0.74398100      -2.75633300       1.24940300
C        1.43318200       1.03536100      -0.36798300
N        1.44894900       1.83291900       0.89719200
H        0.71919200       2.54167800       0.85819600
H        2.32931000       2.33534400       0.97952200
H        1.36019900       1.70360800      -1.22685000
H        2.38423400       0.50643000      -0.42238500
Cu       1.05288900       0.68753400       2.46063200
18
Properties=species:S:1:pos:R:3 energy=-1967.195273614428 pbc="F F F"
C       -1.91435300      -0.61221700      -1.10425100
C       -0.83585800       0.26716000      -1.15816800
C        0.28214100       0.06386500      -0.35544100
C        0.30641700      -1.04067600       0.50459300
C       -0.78031500      -1.90485100       0.58075100
C       -1.89342700      -1.69141300      -0.22824600
H       -2.77063400      -0.45208800      -1.74697800
H       -2.73425900      -2.37158700      -0.18408600
H       -0.86133100       1.11436500      -1.83286200
H        1.20384300      -1.26220000       1.08094900
H       -0.75033700      -2.75306200       1.25248500
C        1.43091500       1.03582100      -0.36715100
N        1.45102600       1.83156000       0.89901800
H        0.71281300       2.53198400       0.86846300
H        2.32640100       2.34416900       0.97185400
H        1.35505800       1.70581600      -1.22443200
H        2.38201400       0.50733300      -0.42569000
Cu       1.08988600       0.68601900       2.46919000
18
Properties=species:S:1:pos:R:3 energy=-1967.195162556565 pbc="F F F"
C       -1.91371200      -0.61418800      -1.10931800
C       -0.83561300       0.26576000      -1.16079400
C        0.27993100       0.06440100      -0.35403400
C        0.30197300      -1.03868000       0.50747400
C       -0.78444300      -1.90322900       0.58163700
C       -1.89495700      -1.69195400      -0.23156100
H       -2.76779500      -0.45569200      -1.75538300
H       -2.73553100      -2.37259200      -0.18902200
H       -0.85927600       1.11190700      -1.83689100
H        1.19715100      -1.25825300       1.08819400
H       -0.75649000      -2.75003000       1.25524700
C        1.42873000       1.03617600      -0.36622800
N        1.45285700       1.83022300       0.90087100
H        0.70654000       2.52238500       0.87845700
H        2.32309800       2.35281300       0.96449500
H        1.35035000       1.70780800      -1.22202400
H        2.37981800       0.50806700      -0.42854400
Cu       1.12737100       0.68508000       2.47742400
18
Properties=species:S:1:pos:R:3 energy=-1967.195053221861 pbc="F F F"
C       -1.91316000      -0.61617600      -1.11441200
C       -0.83541500       0.26432900      -1.16346500
C        0.27761800       0.06486800      -0.35273300
C        0.29740600      -1.03685900       0.51008600
C       -0.78860600      -1.90183800       0.58225000
C       -1.89653100      -1.69264400      -0.23499600
H       -2.76507200      -0.45921800      -1.76363600
H       -2.73687500      -2.37366600      -0.19403200
H       -0.85731300       1.10946800      -1.84090600
H        1.19009400      -1.25404500       1.09554900
H       -0.76255400      -2.74724200       1.25769700
C        1.42653600       1.03640800      -0.36518700
N        1.45453600       1.82890200       0.90277100
H        0.70041700       2.51280600       0.88837900
H        2.31949100       2.36131200       0.95730100
H        1.34588100       1.70965100      -1.21952600
H        2.37760400       0.50864600      -0.43107100
Cu       1.16594200       0.68529800       2.48593200
18
Properties=species:S:1:pos:R:3 energy=-1967.194947923648 pbc="F F F"
C       -1.91258100      -0.61824000      -1.11959300
C       -0.83528900       0.26283800      -1.16624100
C        0.27527400       0.06525200      -0.35143800
C        0.29269600      -1.03515800       0.51255200
C       -0.79283600      -1.90057200       0.58268700
C       -1.89821700      -1.69337600      -0.23860600
H       -2.76237300      -0.46276600      -1.77199600
H       -2.73832400      -2.37477900      -0.19915400
H       -0.85533000       1.10694900      -1.84500200
H        1.18268700      -1.24974700       1.10297300
H       -0.76871100      -2.74456300       1.25998200
C        1.42425700       1.03655300      -0.36407700
N        1.45620300       1.82747500       0.90477900
H        0.69432900       2.50292100       0.89859100
H        2.31557900       2.36985300       0.95008300
H        1.34140100       1.71149500      -1.21688500
H        2.37531600       0.50915400      -0.43354400
Cu       1.20591900       0.68671100       2.49488700
18
Properties=species:S:1:pos:R:3 energy=-1967.194877359004 pbc="F F F"
C       -1.91199800      -0.62037600      -1.12499400
C       -0.83508700       0.26128500      -1.16903900
C        0.27282900       0.06562500      -0.35010600
C        0.28787100      -1.03348700       0.51506900
C       -0.79725600      -1.89930200       0.58308900
C       -1.89998000      -1.69415300      -0.24226700
H       -2.75950000      -0.46652400      -1.78075700
H       -2.73988500      -2.37589400      -0.20442800
H       -0.85326500       1.10432700      -1.84919500
H        1.17509100      -1.24559500       1.11026400
H       -0.77518100      -2.74180900       1.26231900
C        1.42187700       1.03669800      -0.36286900
N        1.45803100       1.82589900       0.90697800
H        0.68830400       2.49243500       0.90940900
H        2.31133400       2.37861800       0.94265600
H        1.33666300       1.71344400      -1.21404400
H        2.37287400       0.50966400      -0.43621600
Cu       1.24727800       0.68914500       2.50413000
18
Properties=species:S:1:pos:R:3 energy=-1967.194756623444 pbc="F F F"
C       -1.91137300      -0.62260800      -1.13058300
C       -0.83493400       0.25968000      -1.17186000
C        0.27023500       0.06595700      -0.34860000
C        0.28291400      -1.03196900       0.51759800
C       -0.80193600      -1.89804100       0.58349200
C       -1.90186900      -1.69493600      -0.24609500
H       -2.75641400      -0.47044300      -1.78984700
H       -2.74156200      -2.37704100      -0.20991300
H       -0.85108500       1.10159800      -1.85343200
H        1.16734400      -1.24174300       1.11737400
H       -0.78197300      -2.73905900       1.26463900
C        1.41942400       1.03677300      -0.36154900
N        1.46008600       1.82424000       0.90928300
H        0.68232400       2.48133100       0.92088400
H        2.30677400       2.38775700       0.93498600
H        1.33165600       1.71547800      -1.21092700
H        2.37036700       0.51013700      -0.43906000
Cu       1.29002100       0.69288900       2.51360900
18
Properties=species:S:1:pos:R:3 energy=-1967.194689594774 pbc="F F F"
C       -1.91072800      -0.62492000      -1.13634000
C       -0.83475400       0.25803100      -1.17459500
C        0.26760200       0.06620500      -0.34689600
C        0.27767000      -1.03057000       0.52029800
C       -0.80686700      -1.89693700       0.58379000
C       -1.90392200      -1.69582100      -0.25011600
H       -2.75318900      -0.47446300      -1.79933700
H       -2.74339000      -2.37832400      -0.21581100
H       -0.84880100       1.09884200      -1.85762300
H        1.15924000      -1.23826700       1.12442500
H       -0.78917800      -2.73646600       1.26685700
C        1.41691700       1.03677400      -0.35998400
N        1.46238000       1.82257900       0.91178500
H        0.67640200       2.46965800       0.93297600
H        2.30179400       2.39739100       0.92697800
H        1.32639800       1.71745200      -1.20752700
H        2.36771200       0.51056800      -0.44194000
Cu       1.33471300       0.69826800       2.52306100
18
Properties=species:S:1:pos:R:3 energy=-1967.19454293376 pbc="F F F"
C       -1.90997600      -0.62730900      -1.14233500
C       -0.83450300       0.25632600      -1.17730800
C        0.26479900       0.06648300      -0.34490500
C        0.27204400      -1.02904700       0.52345400
C       -0.81217200      -1.89576300       0.58420500
C       -1.90606100      -1.69678000      -0.25437500
H       -2.74963600      -0.47863800      -1.80924300
H       -2.74520400      -2.37977100      -0.22218600
H       -0.84630100       1.09597900      -1.86181900
H        1.15064200      -1.23475000       1.13215500
H       -0.79684200      -2.73381500       1.26916200
C        1.41431900       1.03678900      -0.35829600
N        1.46488100       1.82095200       0.91435000
H        0.67044500       2.45722700       0.94593400
H        2.29629000       2.40762900       0.91868700
H        1.32078800       1.71949400      -1.20391600
H        2.36497600       0.51107600      -0.44499500
Cu       1.38151000       0.70391900       2.53143000
18
Properties=species:S:1:pos:R:3 energy=-1967.194460508848 pbc="F F F"
C       -1.90897200      -0.62981300      -1.14848500
C       -0.83410600       0.25453100      -1.18009100
C        0.26199000       0.06696900      -0.34267600
C        0.26618700      -1.02691900       0.52742700
C       -0.81768200      -1.89417400       0.58503200
C       -1.90806800      -1.69768000      -0.25868400
H       -2.74567100      -0.48298300      -1.81945700
H       -2.74677600      -2.38132100      -0.22883000
H       -0.84345000       1.09293000      -1.86617500
H        1.14145300      -1.23053800       1.14136900
H       -0.80487700      -2.73072100       1.27192600
C        1.41168500       1.03706700      -0.35673100
N        1.46764800       1.81927000       0.91684900
H        0.66448700       2.44381000       0.95995000
H        2.29024700       2.41833500       0.91035600
H        1.31470100       1.72186200      -1.20030100
H        2.36220900       0.51192000      -0.44864900
Cu       1.42899400       0.70745500       2.53717100
18
Properties=species:S:1:pos:R:3 energy=-1967.19433773504 pbc="F F F"
C       -1.90777800      -0.63232900      -1.15462100
C       -0.83342400       0.25267800      -1.18284500
C        0.25932200       0.06752100      -0.34030900
C        0.26021300      -1.02447600       0.53188700
C       -0.82320000      -1.89243600       0.58608700
C       -1.90992800      -1.69861500      -0.26299300
H       -2.74154400      -0.48729400      -1.82967700
H       -2.74819900      -2.38292900      -0.23557100
H       -0.84034900       1.08977900      -1.87054100
H        1.13161400      -1.22579600       1.15189500
H       -0.81307500      -2.72741500       1.27490300
C        1.40907700       1.03756300      -0.35530800
N        1.47060000       1.81762400       0.91926100
H        0.65870000       2.42984700       0.97455600
H        2.28380500       2.42932200       0.90219500
H        1.30832700       1.72441400      -1.19678100
H        2.35946300       0.51313400      -0.45269800
Cu       1.47637600       0.70940900       2.54056100
18
Properties=species:S:1:pos:R:3 energy=-1967.194231078463 pbc="F F F"
C       -1.90653000      -0.63485800      -1.16079300
C       -0.83266100       0.25075300      -1.18548200
C        0.25670500       0.06794100      -0.33781500
C        0.25408000      -1.02230600       0.53637700
C       -0.82887100      -1.89092400       0.58694300
C       -1.91185200      -1.69968600      -0.26745100
H       -2.73732400      -0.49146100      -1.83988500
H       -2.74973700      -2.38457200      -0.24252300
H       -0.83710000       1.08665800      -1.87470600
H        1.12109500      -1.22111500       1.16303000
H       -0.82147600      -2.72436700       1.27768500
C        1.40646500       1.03805800      -0.35372300
N        1.47347200       1.81629800       0.92163600
H        0.65305500       2.41578800       0.98933900
H        2.27681500       2.44059900       0.89410300
H        1.30195300       1.72677400      -1.19322300
H        2.35673400       0.51445700      -0.45646100
Cu       1.52517600       0.71196300       2.54294900
18
Properties=species:S:1:pos:R:3 energy=-1967.19408201601 pbc="F F F"
C       -1.90518800      -0.63745400      -1.16718000
C       -0.83174700       0.24872400      -1.18822300
C        0.25396700       0.06829800      -0.33518800
C        0.24768300      -1.02012900       0.54105000
C       -0.83481600      -1.88944500       0.58786200
C       -1.91387400      -1.70076100      -0.27205900
H       -2.73284200      -0.49572300      -1.85041400
H       -2.75140300      -2.38614800      -0.24967600
H       -0.83355600       1.08335200      -1.87900700
H        1.11022500      -1.21594700       1.17461500
H       -0.83034800      -2.72125300       1.28056500
C        1.40374400       1.03854600      -0.35198200
N        1.47621900       1.81506600       0.92412300
H        0.64728600       2.40111100       1.00478200
H        2.26894700       2.45233800       0.88601300
H        1.29546500       1.72907400      -1.18950800
H        2.35392200       0.51583000      -0.46005400
Cu       1.57631500       0.71452000       2.54428100
18
Properties=species:S:1:pos:R:3 energy=-1967.193912689099 pbc="F F F"
C       -1.90360300      -0.64024200      -1.17384900
C       -0.83071100       0.24655100      -1.19130700
C        0.25112600       0.06880800      -0.33261200
C        0.24107200      -1.01745500       0.54611700
C       -0.84100500      -1.88742600       0.58930500
C       -1.91586100      -1.70162800      -0.27653800
H       -2.72787600      -0.50049800      -1.86155600
H       -2.75301600      -2.38755100      -0.25674200
H       -0.82961700       1.07966400      -1.88390600
H        1.09963200      -1.20965500       1.18620600
H       -0.83980300      -2.71737900       1.28425500
C        1.40084800       1.03920400      -0.35027500
N        1.47892900       1.81347700       0.92689000
H        0.64153100       2.38525400       1.02132600
H        2.26013300       2.46419700       0.87829800
H        1.28860700       1.73175200      -1.18559300
H        2.35089900       0.51742700      -0.46408700
Cu       1.62871400       0.71550200       2.54406700
18
Properties=species:S:1:pos:R:3 energy=-1967.193774903288 pbc="F F F"
C       -1.90182100      -0.64325200      -1.18077200
C       -0.82961300       0.24423200      -1.19475000
C        0.24818900       0.06947000      -0.33017600
C        0.23428900      -1.01429600       0.55143100
C       -0.84737400      -1.88486800       0.59118100
C       -1.91783500      -1.70230800      -0.28087400
H       -2.72255100      -0.50578700      -1.87319000
H       -2.75453100      -2.38891200      -0.26369700
H       -0.82540100       1.07560500      -1.88941400
H        1.08922500      -1.20269100       1.19751500
H       -0.84966900      -2.71272800       1.28869800
C        1.39776900       1.04003700      -0.34863800
N        1.48154100       1.81137000       0.93000100
H        0.63605800       2.36849100       1.03872100
H        2.25059600       2.47567700       0.87126700
H        1.28139500       1.73493600      -1.18142700
H        2.34765800       0.51925600      -0.46863000
Cu       1.68207600       0.71576800       2.54275500
18
Properties=species:S:1:pos:R:3 energy=-1967.193589940456 pbc="F F F"
C       -1.89995900      -0.64643600      -1.18789800
C       -0.82843700       0.24180300      -1.19839600
C        0.24513400       0.07029400      -0.32779300
C        0.22726100      -1.01065400       0.55700700
C       -0.85390100      -1.88200600       0.59323700
C       -1.91974900      -1.70306000      -0.28525300
H       -2.71705200      -0.51138700      -1.88508500
H       -2.75584300      -2.39048300      -0.27080200
H       -0.82106600       1.07128200      -1.89528900
H        1.07823500      -1.19538900       1.20926900
H       -0.85970500      -2.70762600       1.29341600
C        1.39450900       1.04104100      -0.34707500
N        1.48406400       1.80887100       0.93341900
H        0.63105300       2.35130600       1.05662800
H        2.24062400       2.48657700       0.86493000
H        1.27393900       1.73852700      -1.17706600
H        2.34414000       0.52125200      -0.47349700
Cu       1.73675200       0.71608900       2.54024700
18
Properties=species:S:1:pos:R:3 energy=-1967.193398456724 pbc="F F F"
C       -1.89802400      -0.64979900      -1.19512600
C       -0.82730000       0.23930600      -1.20212300
C        0.24189000       0.07133300      -0.32528400
C        0.21980600      -1.00651500       0.56298700
C       -0.86051800      -1.87906200       0.59523100
C       -1.92153400      -1.70407400      -0.28988400
H       -2.71148200      -0.51717000      -1.89703500
H       -2.75682400      -2.39252700      -0.27830500
H       -0.81677100       1.06684700      -1.90124100
H        1.06589800      -1.18753200       1.22233200
H       -0.86965200      -2.70245200       1.29800400
C        1.39109600       1.04220100      -0.34546300
N        1.48672200       1.80625800       0.93695100
H        0.62678700       2.33399900       1.07489100
H        2.23058900       2.49701500       0.85918500
H        1.26635200       1.74236400      -1.17253800
H        2.34033600       0.52328700      -0.47850100
Cu       1.79263000       0.71652100       2.53592100
18
Properties=species:S:1:pos:R:3 energy=-1967.193207285535 pbc="F F F"
C       -1.89607800      -0.65331100      -1.20245400
C       -0.82623200       0.23678000      -1.20577700
C        0.23841800       0.07247100      -0.32257300
C        0.21181500      -1.00226300       0.56913400
C       -0.86732400      -1.87638100       0.59694800
C       -1.92333100      -1.70545300      -0.29488200
H       -2.70590300      -0.52304800      -1.90899600
H       -2.75767400      -2.39502800      -0.28627100
H       -0.81263500       1.06244600      -1.90704500
H        1.05212200      -1.17926400       1.23647000
H       -0.87952000      -2.69763800       1.30216200
C        1.38761800       1.04332800      -0.34356600
N        1.48976700       1.80377200       0.94061100
H        0.62336300       2.31662200       1.09347100
H        2.22053700       2.50739400       0.85371800
H        1.25878000       1.74618000      -1.16768300
H        2.33633200       0.52518100      -0.48334600
Cu       1.84994600       0.71821200       2.53007800
18
Properties=species:S:1:pos:R:3 energy=-1967.193032485459 pbc="F F F"
C       -1.89416800      -0.65697000      -1.21005400
C       -0.82522900       0.23416600      -1.20942900
C        0.23472000       0.07346900      -0.31969400
C        0.20338600      -0.99837600       0.57513400
C       -0.87456500      -1.87400700       0.59830500
C       -1.92538600      -1.70703500      -0.30023900
H       -2.70015800      -0.52909600      -1.92136800
H       -2.75887100      -2.39770000      -0.29468500
H       -0.80852600       1.05800800      -1.91278500
H        1.03752300      -1.17130000       1.25052900
H       -0.88989100      -2.69313600       1.30600500
C        1.38408200       1.04422400      -0.34119700
N        1.49336100       1.80124200       0.94460100
H        0.62064500       2.29829500       1.11302700
H        2.20984600       2.51822900       0.84800800
H        1.25105800       1.74992800      -1.16218600
H        2.33211700       0.52679600      -0.48815500
Cu       1.91005600       0.72326400       2.52418300
18
Properties=species:S:1:pos:R:3 energy=-1967.192885902751 pbc="F F F"
C       -1.89207100      -0.66086100      -1.21816500
C       -0.82412300       0.23137600      -1.21313400
C        0.23071700       0.07444200      -0.31646800
C        0.19445300      -0.99452700       0.58149600
C       -0.88247600      -1.87155500       0.59979400
C       -1.92773300      -1.70868700      -0.30594000
H       -2.69382200      -0.53562500      -1.93474000
H       -2.76028800      -2.40040500      -0.30372000
H       -0.80406400       1.05325800      -1.91872100
H        1.02272300      -1.16310400       1.26468000
H       -0.90145200      -2.68838500       1.31004200
C        1.38036800       1.04499700      -0.33858700
N        1.49794000       1.79833100       0.94892700
H        0.61881300       2.27755200       1.13484700
H        2.19794800       2.53000400       0.84173300
H        1.24253300       1.75398700      -1.15588000
H        2.32746900       0.52831400      -0.49381900
Cu       1.97306600       0.73088700       2.51765300
18
Properties=species:S:1:pos:R:3 energy=-1967.192698325391 pbc="F F F"
C       -1.88956600      -0.66517600      -1.22679900
C       -0.82282200       0.22836500      -1.21698500
C        0.22637300       0.07572200      -0.31272000
C        0.18477400      -0.98984800       0.58897200
C       -0.89097100      -1.86856100       0.60180400
C       -1.92995600      -1.71048700      -0.31193100
H       -2.68661400      -0.54290900      -1.94915800
H       -2.76135300      -2.40359600      -0.31357200
H       -0.79906400       1.04802500      -1.92504100
H        1.00685300      -1.15337600       1.28039100
H       -0.91408300      -2.68302100       1.31474600
C        1.37629000       1.04613600      -0.33592900
N        1.50349000       1.79514600       0.95336400
H        0.61825000       2.25462800       1.15903500
H        2.18511800       2.54238900       0.83556100
H        1.23286600       1.75874700      -1.14910500
H        2.32225200       0.53023500      -0.50076700
Cu       2.03816400       0.73758200       2.50813300
18
Properties=species:S:1:pos:R:3 energy=-1967.192467073968 pbc="F F F"
C       -1.88657400      -0.67000900      -1.23587900
C       -0.82129900       0.22508900      -1.22117100
C        0.22166900       0.07755900      -0.30869400
C        0.17415900      -0.98377100       0.59770700
C       -0.89978800      -1.86487500       0.60448700
C       -1.93176000      -1.71252300      -0.31808700
H       -2.67860900      -0.55106700      -1.96426000
H       -2.76161000      -2.40750000      -0.32396100
H       -0.79355500       1.04220200      -1.93200000
H        0.98907000      -1.14143200       1.29848900
H       -0.92710900      -2.67674800       1.32024900
C        1.37178500       1.04798500      -0.33339600
N        1.50904900       1.79175900       0.95801100
H        0.61865700       2.23104200       1.18449500
H        2.17184600       2.55425300       0.83086200
H        1.22248500       1.76434700      -1.14213800
H        2.31642000       0.53295600      -0.50832500
Cu       2.10516500       0.74073300       2.49361200
18
Properties=species:S:1:pos:R:3 energy=-1967.19222434853 pbc="F F F"
C       -1.88292000      -0.67546100      -1.24525500
C       -0.81938900       0.22150800      -1.22600500
C        0.21686700       0.08014500      -0.30483800
C        0.16320800      -0.97595100       0.60737200
C       -0.90849100      -1.85996900       0.60817700
C       -1.93289500      -1.71454300      -0.32388400
H       -2.66977200      -0.56051000      -1.97994300
H       -2.76082100      -2.41170500      -0.33387500
H       -0.78758400       1.03566600      -1.94004800
H        0.97039300      -1.12649100       1.31853500
H       -0.94014300      -2.66876400       1.32728700
C        1.36675200       1.05084500      -0.33122000
N        1.51431000       1.78780800       0.96297100
H        0.61992700       2.20696900       1.21079600
H        2.15856600       2.56479900       0.82854900
H        1.21139200       1.77136700      -1.13500600
H        2.30997100       0.53686700      -0.51683400
Cu       2.17062700       0.73742100       2.47322100
18
Properties=species:S:1:pos:R:3 energy=-1967.19197789951 pbc="F F F"
C       -1.87871600      -0.68154600      -1.25512200
C       -0.81733500       0.21762900      -1.23150000
C        0.21185500       0.08326700      -0.30132900
C        0.15226700      -0.96690900       0.61731600
C       -0.91723700      -1.85383600       0.61277300
C       -1.93368900      -1.71630600      -0.32918800
H       -2.65994500      -0.57151900      -1.99654200
H       -2.75953300      -2.41593600      -0.34309700
H       -0.78127400       1.02832400      -1.94922900
H        0.95205900      -1.11000500       1.33831400
H       -0.95372700      -2.65882400       1.33596500
C        1.36123300       1.05449200      -0.32929600
N        1.51999600       1.78297100       0.96835700
H        0.62267500       2.18128500       1.23867200
H        2.14519800       2.57430000       0.82791500
H        1.19919700       1.77996300      -1.12716200
H        2.30272800       0.54173000      -0.52695300
Cu       2.23425000       0.73092100       2.45010600
18
Properties=species:S:1:pos:R:3 energy=-1967.191694875222 pbc="F F F"
C       -1.87451500      -0.68787500      -1.26524100
C       -0.81546300       0.21371900      -1.23678100
C        0.20628300       0.08647700      -0.29730900
C        0.14025000      -0.95792200       0.62748400
C       -0.92669500      -1.84811100       0.61694300
C       -1.93467600      -1.71861700      -0.33514900
H       -2.64987300      -0.58273300      -2.01351700
H       -2.75813300      -2.42096700      -0.35341600
H       -0.77505800       1.02101700      -1.95808500
H        0.93172100      -1.09375400       1.35865400
H       -0.96784600      -2.64942700       1.34395900
C        1.35548100       1.05793500      -0.32685700
N        1.52650900       1.77811400       0.97398100
H        0.62729700       2.15507300       1.26741400
H        2.13173300       2.58371700       0.82727000
H        1.18679500       1.78846100      -1.11854500
H        2.29479400       0.54615600      -0.53696500
Cu       2.30139600       0.72873500       2.42616000
18
Properties=species:S:1:pos:R:3 energy=-1967.19141871881 pbc="F F F"
C       -1.87014700      -0.69454200      -1.27573200
C       -0.81365600       0.20971300      -1.24194600
C        0.20012300       0.08988400      -0.29280000
C        0.12693600      -0.94855500       0.63826100
C       -0.93677300      -1.84265500       0.62077300
C       -1.93560600      -1.72158000      -0.34186200
H       -2.63941500      -0.59426600      -2.03092300
H       -2.75633800      -2.42693400      -0.36491300
H       -0.76885900       1.01368800      -1.96674700
H        0.90843100      -1.07613100       1.38098700
H       -0.98243400      -2.64046400       1.35142600
C        1.34940700       1.06131000      -0.32399300
N        1.53391900       1.77313200       0.97975300
H        0.63388700       2.12774500       1.29729400
H        2.11792000       2.59314000       0.82707100
H        1.17415000       1.79710800      -1.10921400
H        2.28613000       0.55027100      -0.54710300
Cu       2.37232600       0.72913600       2.39966800
18
Properties=species:S:1:pos:R:3 energy=-1967.19116118022 pbc="F F F"
C       -1.86502400      -0.70223400      -1.28715400
C       -0.81169000       0.20531700      -1.24803400
C        0.19332400       0.09405700      -0.28838300
C        0.11250600      -0.93735500       0.64991700
C       -0.94742400      -1.83589900       0.62547700
C       -1.93612000      -1.72467100      -0.34867100
H       -2.62759600      -0.60787400      -2.04989800
H       -2.75368300      -2.43361500      -0.37660800
H       -0.76219400       1.00528800      -1.97684900
H        0.88326300      -1.05502500       1.40500800
H       -0.99810700      -2.62947400       1.36047500
C        1.34258300       1.06560000      -0.32122800
N        1.54237900       1.76686200       0.98609000
H        0.64275700       2.09696900       1.32997900
H        2.10322900       2.60198300       0.82904600
H        1.16013600       1.80772700      -1.09869500
H        2.27605300       0.55533600      -0.55920300
Cu       2.44560900       0.72701100       2.36873200
18
Properties=species:S:1:pos:R:3 energy=-1967.190884266834 pbc="F F F"
C       -1.85867000      -0.71146500      -1.30002300
C       -0.80935700       0.20025500      -1.25566400
C        0.18542400       0.09959400      -0.28422400
C        0.09661300      -0.92322400       0.66264300
C       -0.95917500      -1.82662900       0.63199100
C       -1.93621100      -1.72761600      -0.35513800
H       -2.61327000      -0.62510900      -2.07163200
H       -2.74991200      -2.44091500      -0.38807100
H       -0.75443800       0.99503200      -1.98964100
H        0.85710600      -1.02938600       1.42941300
H       -1.01580000      -2.61459400       1.37265900
C        1.33445700       1.07135200      -0.31833600
N        1.55146100       1.75871100       0.99371100
H        0.65382800       2.06090700       1.36703000
H        2.08642400       2.61019700       0.83471700
H        1.14451200       1.82114000      -1.08649700
H        2.26400300       0.56187500      -0.57319400
Cu       2.52300400       0.71987500       2.33025500
18
Properties=species:S:1:pos:R:3 energy=-1967.19048229956 pbc="F F F"
C       -1.85047100      -0.72248800      -1.31435400
C       -0.80626100       0.19445600      -1.26457300
C        0.17599800       0.10731300      -0.27943500
C        0.07837500      -0.90503100       0.67771200
C       -0.97222800      -1.81457400       0.64063200
C       -1.93526000      -1.73074900      -0.36143400
H       -2.59540700      -0.64618700      -2.09623700
H       -2.74379200      -2.44956600      -0.40011300
H       -0.74482000       0.98292900      -2.00482700
H        0.82761200      -0.99672300       1.45710600
H       -1.03560300      -2.59564100       1.38805600
C        1.32490700       1.07900700      -0.31488400
N        1.56040700       1.74947600       1.00281600
H        0.66668400       2.01918800       1.40883600
H        2.06635300       2.61869900       0.84512500
H        1.12804700       1.83707800      -1.07293100
H        2.24975600       0.56969100      -0.58760100
Cu       2.60570500       0.70312200       2.27610500
18
Properties=species:S:1:pos:R:3 energy=-1967.189881329929 pbc="F F F"
C       -1.83993100      -0.73461000      -1.32995600
C       -0.80185500       0.18829000      -1.27363300
C        0.16507700       0.11673400      -0.27242000
C        0.05672400      -0.88366000       0.69614200
C       -0.98735300      -1.80048300       0.65076600
C       -1.93331900      -1.73419700      -0.36865100
H       -2.57305500      -0.66983400      -2.12371200
H       -2.73554300      -2.45976700      -0.41420600
H       -0.73240900       0.96975400      -2.02031900
H        0.79044000      -0.96003900       1.49158300
H       -1.05842100      -2.57399800       1.40523700
C        1.31440500       1.08795800      -0.31008300
N        1.56931600       1.74089600       1.01282400
H        0.68189300       1.96955900       1.45610500
H        2.03926100       2.63067000       0.85975700
H        1.11224700       1.85383800      -1.05883000
H        2.23357900       0.57714800      -0.60015100
Cu       2.69894500       0.68173900       2.19954700
18
Properties=species:S:1:pos:R:3 energy=-1967.188894968048 pbc="F F F"
C       -1.82766500      -0.74541300      -1.34557100
C       -0.79575800       0.18299300      -1.28015500
C        0.15265900       0.12676400      -0.26080700
C        0.03151700      -0.86289700       0.71772600
C       -1.00587400      -1.78655000       0.66096000
C       -1.93161800      -1.73731400      -0.37747400
H       -2.54628100      -0.69186100      -2.15283500
H       -2.72687900      -2.46975200      -0.43210700
H       -0.71575000       0.95790600      -2.03245600
H        0.74621900      -0.92574000       1.53099400
H       -1.08551400      -2.55357200       1.42104600
C        1.30433600       1.09483400      -0.30083200
N        1.57474800       1.73766900       1.02458400
H        0.69611900       1.91279800       1.50815900
H        1.99525300       2.65249300       0.87663300
H        1.10544200       1.86361600      -1.04732100
H        2.21727900       0.57677500      -0.59947400
Cu       2.81176700       0.66725100       2.08892900
18
Properties=species:S:1:pos:R:3 energy=-1967.186900571121 pbc="F F F"
C       -1.81562800      -0.74925500      -1.35640500
C       -0.78783000       0.18213300      -1.28021400
C        0.14218500       0.13543400      -0.24460800
C        0.00975100      -0.84786900       0.73995700
C       -1.02295100      -1.77571700       0.66993600
C       -1.92999900      -1.73678800      -0.38536300
H       -2.52026400      -0.70202500      -2.17577800
H       -2.71861700      -2.47500900      -0.45144000
H       -0.69526400       0.95351400      -2.03458300
H        0.70892600      -0.90176900       1.56785400
H       -1.11160100      -2.53972100       1.43178200
C        1.30003400       1.09400500      -0.28678200
N        1.56821100       1.74561900       1.03701300
H        0.69872900       1.85593100       1.55567000
H        1.92344500       2.68803800       0.89221500
H        1.12321500       1.85400700      -1.04693600
H        2.20812500       0.55781500      -0.57125700
Cu       2.91953400       0.66165700       1.93893900
18
Properties=species:S:1:pos:R:3 energy=-1967.183432395424 pbc="F F F"
C       -1.80720700      -0.74446100      -1.35936500
C       -0.78083600       0.18737900      -1.27379400
C        0.13749700       0.14018800      -0.22941000
C       -0.00184900      -0.84260900       0.75525800
C       -1.03195300      -1.77177100       0.67476300
C       -1.92830800      -1.73297600      -0.39029300
H       -2.50419700      -0.69621700      -2.18526600
H       -2.71389300      -2.47290200      -0.46552400
H       -0.67654800       0.95821900      -2.02722200
H        0.69187700      -0.89564700       1.58825600
H       -1.12654000      -2.53730900       1.43452200
C        1.30377400       1.08419400      -0.26796900
N        1.54780400       1.76511200       1.04917500
H        0.68245500       1.82453500       1.58347700
H        1.84118100       2.72777500       0.89948200
H        1.16713300       1.82398400      -1.05451200
H        2.20824600       0.52073200      -0.51524700
Cu       2.99136700       0.66177400       1.78367000
18
Properties=species:S:1:pos:R:3 energy=-1967.179233415879 pbc="F F F"
C       -1.80124800      -0.73716700      -1.35745900
C       -0.77373000       0.19309900      -1.26507600
C        0.13720300       0.14042700      -0.21639500
C       -0.00859200      -0.84283700       0.76722900
C       -1.03867900      -1.77107300       0.67874200
C       -1.92818400      -1.72804000      -0.39160100
H       -2.48943500      -0.69041800      -2.19032600
H       -2.71089500      -2.46987700      -0.47672100
H       -0.66102700       0.96372900      -2.01767600
H        0.68303500      -0.89879700       1.60144500
H       -1.13408100      -2.54326000       1.43172500
C        1.30841500       1.07391400      -0.24672400
N        1.52568100       1.78856800       1.05907900
H        0.66207100       1.81843100       1.59829700
H        1.78442100       2.75964800       0.90052800
H        1.21193500       1.79611000      -1.05161700
H        2.21025200       0.48813200      -0.46535000
Cu       3.02285800       0.65941000       1.64190100
18
Properties=species:S:1:pos:R:3 energy=-1967.175437250492 pbc="F F F"
C       -1.79703300      -0.73244800      -1.35417400
C       -0.76616400       0.19595100      -1.25725200
C        0.14305600       0.13852600      -0.21008400
C       -0.00722900      -0.84559300       0.77424900
C       -1.04039000      -1.77279700       0.68101300
C       -1.92909500      -1.72208300      -0.38771100
H       -2.48050200      -0.68394000      -2.18986100
H       -2.70793600      -2.46803300      -0.48288700
H       -0.65216800       0.96813900      -2.00762500
H        0.67738400      -0.90637800       1.61348800
H       -1.13736600      -2.54896800       1.43126500
C        1.31329800       1.07390200      -0.23554300
N        1.50350100       1.81140200       1.06131800
H        0.64233100       1.81477900       1.60778500
H        1.75485800       2.78394500       0.89790300
H        1.24547500       1.77816100      -1.05893000
H        2.21768300       0.47848900      -0.43795500
Cu       3.02029800       0.63694600       1.55500000
18
Properties=species:S:1:pos:R:3 energy=-1967.171268971737 pbc="F F F"
C       -1.78977800      -0.72903400      -1.35220800
C       -0.76192000       0.19995300      -1.25300500
C        0.14815100       0.13812300      -0.20302600
C       -0.00929400      -0.84446400       0.78039300
C       -1.03762300      -1.77332400       0.68341500
C       -1.92391500      -1.72250000      -0.39138300
H       -2.47615100      -0.67635900      -2.18769100
H       -2.70543500      -2.46439000      -0.48429200
H       -0.64356000       0.97117100      -2.00308100
H        0.67467500      -0.90771600       1.62221400
H       -1.13822100      -2.54929800       1.43260300
C        1.31945900       1.07168200      -0.21983800
N        1.48200800       1.83132200       1.07202700
H        0.62133600       1.82631500       1.61933800
H        1.71385100       2.80826500       0.90429900
H        1.28299900       1.75550700      -1.06251000
H        2.22508700       0.45895100      -0.41608000
Cu       3.01833100       0.60579400       1.45882700
18
Properties=species:S:1:pos:R:3 energy=-1967.160932102913 pbc="F F F"
C       -1.77996600      -0.72393500      -1.34978700
C       -0.75284500       0.20680800      -1.24489600
C        0.15057200       0.13851900      -0.18955600
C       -0.01687200      -0.83912600       0.79539700
C       -1.04178800      -1.77021400       0.68892500
C       -1.91451300      -1.72398800      -0.39678500
H       -2.46100200      -0.67385700      -2.18928100
H       -2.70091500      -2.46172600      -0.49001100
H       -0.62950000       0.97307600      -1.99961300
H        0.67012200      -0.90361800       1.63467400
H       -1.13993600      -2.55053000       1.43188300
C        1.33094200       1.06142100      -0.18557600
N        1.45120700       1.86236300       1.09417800
H        0.59019500       1.85677800       1.64311800
H        1.65278800       2.84457400       0.91996200
H        1.34175200       1.72747100      -1.03993500
H        2.24354200       0.40774600      -0.40152200
Cu       3.00621700       0.56823600       1.27882400
18
Properties=species:S:1:pos:R:3 energy=-1967.144560638956 pbc="F F F"
C       -1.77556600      -0.71681300      -1.34684800
C       -0.74330000       0.20807800      -1.23764800
C        0.15320500       0.14203300      -0.17934400
C       -0.01713000      -0.84304200       0.80360800
C       -1.04318800      -1.76991400       0.69108900
C       -1.91576500      -1.71967100      -0.39066500
H       -2.45190300      -0.66938300      -2.18724700
H       -2.69657700      -2.46007400      -0.49448500
H       -0.62322100       0.97825300      -1.99096200
H        0.66720100      -0.90711400       1.64290600
H       -1.13993500      -2.55754900       1.43039400
C        1.32893400       1.07016600      -0.14955000
N        1.39643700       1.90615700       1.09591700
H        0.56169800       1.86263500       1.67599000
H        1.63321700       2.87812300       0.92443600
H        1.38908700       1.70928300      -1.02207600
H        2.33235900       0.33814200      -0.39614500
Cu       2.94444800       0.55069100       1.13062800
18
Properties=species:S:1:pos:R:3 energy=-1967.132999096322 pbc="F F F"
C       -1.77168500      -0.71873600      -1.34644500
C       -0.74078300       0.20963300      -1.23847800
C        0.15003500       0.14660400      -0.16930600
C       -0.02021100      -0.84000300       0.80654100
C       -1.04221100      -1.77240200       0.69251100
C       -1.91489900      -1.71779800      -0.39205200
H       -2.44982900      -0.66913700      -2.18797200
H       -2.69604800      -2.46013200      -0.49534400
H       -0.62225500       0.97864900      -1.99116400
H        0.66374300      -0.90484800       1.64668600
H       -1.14055900      -2.55858500       1.43084300
C        1.30696600       1.09386700      -0.12230700
N        1.35881900       1.93089000       1.09353000
H        0.54993600       1.86996000       1.70411300
H        1.62917700       2.89487800       0.93466600
H        1.40640700       1.70158200      -1.01150100
H        2.41084200       0.27287000      -0.41978200
Cu       2.92255400       0.54270900       1.06546200
18
Properties=species:S:1:pos:R:3 energy=-1967.126451293817 pbc="F F F"
C       -1.77020800      -0.71921000      -1.34741300
C       -0.74027100       0.20980900      -1.23746900
C        0.14680300       0.15009500      -0.16401400
C       -0.02248000      -0.83860800       0.80980100
C       -1.04179300      -1.77227500       0.69215600
C       -1.91426600      -1.71824900      -0.39240700
H       -2.44916100      -0.66958700      -2.18857700
H       -2.69603700      -2.45977600      -0.49555700
H       -0.62192400       0.97847600      -1.99106100
H        0.66314000      -0.90464000       1.64800200
H       -1.14025300      -2.55847200       1.43017200
C        1.28345500       1.11478800      -0.10421300
N        1.33717800       1.94387800       1.09110700
H        0.54497300       1.87571800       1.72002400
H        1.62886700       2.90181600       0.94086400
H        1.41422800       1.69913400      -1.00429900
H        2.47204400       0.22420200      -0.44118400
Cu       2.90570600       0.54290200       1.03407000
18
Properties=species:S:1:pos:R:3 energy=-1967.122542810713 pbc="F F F"
C       -1.76953900      -0.71943400      -1.34789900
C       -0.74010900       0.21004800      -1.23722500
C        0.14372700       0.15268000      -0.15994900
C       -0.02423300      -0.83770000       0.81199600
C       -1.04176300      -1.77249300       0.69208800
C       -1.91400500      -1.71827600      -0.39269400
H       -2.44886200      -0.66974400      -2.18898000
H       -2.69597800      -2.45963000      -0.49564000
H       -0.62182500       0.97858000      -1.99082100
H        0.66254000      -0.90459500       1.64895500
H       -1.13992200      -2.55876600       1.42962200
C        1.26233200       1.13255500      -0.09056800
N        1.32019800       1.95391100       1.08884700
H        0.54226500       1.87957200       1.73270100
H        1.62886900       2.90685700       0.94567200
H        1.42041200       1.69742000      -0.99835000
H        2.52477200       0.18335900      -0.45789100
Cu       2.89111700       0.54565600       1.01013600
18
Properties=species:S:1:pos:R:3 energy=-1967.120357152966 pbc="F F F"
C       -1.76895600      -0.71960900      -1.34829300
C       -0.74007000       0.21022100      -1.23726300
C        0.14061000       0.15528400      -0.15645700
C       -0.02580800      -0.83691600       0.81382900
C       -1.04164900      -1.77294900       0.69215800
C       -1.91377600      -1.71823800      -0.39278500
H       -2.44840200      -0.66988300      -2.18929000
H       -2.69589800      -2.45951500      -0.49573800
H       -0.62184600       0.97885000      -1.99067300
H        0.66157600      -0.90436100       1.65000500
H       -1.13968200      -2.55942200       1.42933800
C        1.24226200       1.14894100      -0.07947000
N        1.30509600       1.96290400       1.08674400
H        0.54066200       1.88264800       1.74442600
H        1.62933600       2.91135500       0.95058700
H        1.42533800       1.69658000      -0.99301700
H        2.57498500       0.14523100      -0.47121600
Cu       2.87622300       0.54887700       0.98711300
18
Properties=species:S:1:pos:R:3 energy=-1967.119734337613 pbc="F F F"
C       -1.76850400      -0.71991500      -1.34878600
C       -0.74031800       0.21028800      -1.23732700
C        0.13710100       0.15807800      -0.15303100
C       -0.02751900      -0.83591400       0.81576300
C       -1.04151800      -1.77332400       0.69212400
C       -1.91363200      -1.71821300      -0.39287500
H       -2.44805700      -0.67012100      -2.18967800
H       -2.69583200      -2.45943400      -0.49586100
H       -0.62201200       0.97909500      -1.99049700
H        0.66042200      -0.90399300       1.65113900
H       -1.13937300      -2.56010300       1.42891800
C        1.22175500       1.16516400      -0.06956000
N        1.29020700       1.97188900       1.08496300
H        0.53965300       1.88554400       1.75654400
H        1.63003200       2.91551800       0.95571200
H        1.42976600       1.69605000      -0.98769700
H        2.62703100       0.10666400      -0.48302900
Cu       2.86079800       0.55272800       0.96317900
18
Properties=species:S:1:pos:R:3 energy=-1967.120076283865 pbc="F F F"
C       -1.76833600      -0.72038600      -1.34939500
C       -0.74100400       0.21031700      -1.23754300
C        0.13323200       0.16085800      -0.15011600
C       -0.02948100      -0.83462300       0.81760900
C       -1.04154200      -1.77358400       0.69207500
C       -1.91361400      -1.71830800      -0.39301200
H       -2.44786400      -0.67066300      -2.19028100
H       -2.69577900      -2.45953000      -0.49602800
H       -0.62243800       0.97924100      -1.99051900
H        0.65890300      -0.90318300       1.65237300
H       -1.13907800      -2.56074100       1.42842000
C        1.20364000       1.17864100      -0.06224800
N        1.27781600       1.97938100       1.08399600
H        0.53961700       1.88804900       1.76785300
H        1.63071200       2.91897000       0.96081600
H        1.43271800       1.69629300      -0.98298300
H        2.67533800       0.07215000      -0.49160800
Cu       2.84715900       0.55711800       0.94059300
18
Properties=species:S:1:pos:R:3 energy=-1967.121213935647 pbc="F F F"
C       -1.76836900      -0.72099700      -1.35016400
C       -0.74207200       0.21029700      -1.23791700
C        0.12875200       0.16394800      -0.14727200
C       -0.03177800      -0.83306800       0.81955500
C       -1.04165900      -1.77380900       0.69202000
C       -1.91367900      -1.71845300      -0.39318600
H       -2.44773100      -0.67146600      -2.19109800
H       -2.69573000      -2.45977200      -0.49624900
H       -0.62306500       0.97935500      -1.99063200
H        0.65700300      -0.90200100       1.65377300
H       -1.13876800      -2.56141800       1.42784900
C        1.18582000       1.19147200      -0.05603400
N        1.26622800       1.98649800       1.08368400
H        0.54006500       1.89052100       1.77951400
H        1.63133800       2.92230000       0.96621400
H        1.43473400       1.69712100      -0.97832300
H        2.72516000       0.03743000      -0.49865500
Cu       2.83375200       0.56204200       0.91692300
18
Properties=species:S:1:pos:R:3 energy=-1967.122797585239 pbc="F F F"
C       -1.76861400      -0.72184700      -1.35112700
C       -0.74365800       0.21027400      -1.23844600
C        0.12345300       0.16736700      -0.14450300
C       -0.03456200      -0.83110200       0.82161800
C       -1.04198400      -1.77393100       0.69194900
C       -1.91383200      -1.71870300      -0.39345000
H       -2.44767200      -0.67264200      -2.19218300
H       -2.69567100      -2.46020600      -0.49653500
H       -0.62399500       0.97939100      -1.99090400
H        0.65456900      -0.90025300       1.65540100
H       -1.13845900      -2.56209200       1.42716000
C        1.16810700       1.20370300      -0.05079700
N        1.25558800       1.99310700       1.08412300
H        0.54132900       1.89293400       1.79159200
H        1.63179200       2.92537000       0.97209300
H        1.43548500       1.69886600      -0.97380500
H        2.77746800       0.00201200      -0.50405800
Cu       2.82065600       0.56775200       0.89187200
18
Properties=species:S:1:pos:R:3 energy=-1967.124541164273 pbc="F F F"
C       -1.76926800      -0.72289900      -1.35235600
C       -0.74587600       0.21016200      -1.23925100
C        0.11724100       0.17124300      -0.14180900
C       -0.03804000      -0.82857600       0.82387400
C       -1.04261700      -1.77382900       0.69191800
C       -1.91413300      -1.71914100      -0.39390000
H       -2.44776600      -0.67440500      -2.19370800
H       -2.69557200      -2.46096900      -0.49695500
H       -0.62542700       0.97930800      -1.99149400
H        0.65131200      -0.89761900       1.65736200
H       -1.13822000      -2.56271600       1.42641300
C        1.15011400       1.21561300      -0.04656600
N        1.24626100       1.99882600       1.08531300
H        0.54373000       1.89494600       1.80429300
H        1.63218700       2.92811900       0.97851900
H        1.43425300       1.70184300      -0.96947400
H        2.83343200      -0.03421300      -0.50739600
Cu       2.80838800       0.57430700       0.86521600
18
Properties=species:S:1:pos:R:3 energy=-1967.126508874047 pbc="F F F"
C       -1.77035400      -0.72436400      -1.35400500
C       -0.74894200       0.21015500      -1.24030400
C        0.11004100       0.17564600      -0.13928200
C       -0.04266800      -0.82508300       0.82650100
C       -1.04384100      -1.77339800       0.69198100
C       -1.91462100      -1.71987000      -0.39466000
H       -2.44807300      -0.67700800      -2.19587200
H       -2.69540300      -2.46230600      -0.49755700
H       -0.62740900       0.97897600      -1.99269100
H        0.64667900      -0.89356400       1.66003200
H       -1.13820900      -2.56312000       1.42572200
C        1.13214900       1.22706200      -0.04335300
N        1.23880000       2.00311800       1.08735200
H        0.54800500       1.89577100       1.81765700
H        1.63271800       2.93002900       0.98549700
H        1.42951400       1.70683200      -0.96567900
H        2.89421700      -0.07060000      -0.50825300
Cu       2.79739600       0.58172200       0.83691400
18
Properties=species:S:1:pos:R:3 energy=-1967.128408189672 pbc="F F F"
C       -1.77221000      -0.72610000      -1.35588100
C       -0.75300800       0.21010900      -1.24171100
C        0.10168100       0.18050300      -0.13698300
C       -0.04834100      -0.82079000       0.82931200
C       -1.04549300      -1.77270300       0.69212200
C       -1.91549700      -1.72073500      -0.39545800
H       -2.44908800      -0.68008900      -2.19837700
H       -2.69523300      -2.46425000      -0.49845600
H       -0.63040500       0.97855600      -1.99413100
H        0.64037800      -0.88805400       1.66343800
H       -1.13827600      -2.56357300       1.42478400
C        1.11390100       1.23809700      -0.04150200
N        1.23365500       2.00549000       1.08988800
H        0.55398100       1.89513500       1.83082800
H        1.63332400       2.93093900       0.99253000
H        1.42145700       1.71370000      -0.96308100
H        2.96080600      -0.10571600      -0.50572100
Cu       2.78836800       0.58948200       0.80839900
18
Properties=species:S:1:pos:R:3 energy=-1967.130237808437 pbc="F F F"
C       -1.77578600      -0.72734500      -1.35746300
C       -0.75880900       0.21051100      -1.24309200
C        0.09258300       0.18543800      -0.13548100
C       -0.05449600      -0.81661000       0.83141000
C       -1.04737200      -1.77221800       0.69166400
C       -1.91719900      -1.72177600      -0.39631800
H       -2.45218800      -0.68296300      -2.20029700
H       -2.69575500      -2.46647500      -0.49912400
H       -0.63582900       0.97888700      -1.99541300
H        0.63378200      -0.88236000       1.66599400
H       -1.13747800      -2.56487000       1.42276000
C        1.09588200       1.24826300      -0.04101500
N        1.22989400       2.00674000       1.09159100
H        0.56085300       1.89382700       1.84267900
H        1.63386700       2.93134200       0.99815800
H        1.41154700       1.72103600      -0.96170100
H        3.03500500      -0.13927000      -0.49580700
Cu       2.78149800       0.59784300       0.78145500
18
Properties=species:S:1:pos:R:3 energy=-1967.131965860252 pbc="F F F"
C       -1.78107500      -0.72860900      -1.35906700
C       -0.76635800       0.21111000      -1.24487600
C        0.08293700       0.19005300      -0.13504700
C       -0.06114600      -0.81271700       0.83240300
C       -1.04997000      -1.77189400       0.69066200
C       -1.92004700      -1.72292700      -0.39737800
H       -2.45729400      -0.68611600      -2.20208200
H       -2.69728000      -2.46898900      -0.49972200
H       -0.64399100       0.97963500      -1.99708300
H        0.62732500      -0.87667300       1.66693300
H       -1.13698700      -2.56638900       1.42010200
C        1.07862800       1.25701300      -0.04194900
N        1.22887800       2.00611500       1.09242900
H        0.57154000       1.88994400       1.85412200
H        1.63428900       2.93098000       1.00177600
H        1.39870100       1.72917400      -0.96182700
H        3.11320100      -0.16933200      -0.47645700
Cu       2.77865000       0.60962300       0.75706000
18
Properties=species:S:1:pos:R:3 energy=-1967.133625401394 pbc="F F F"
C       -1.78600900      -0.73155500      -1.36232200
C       -0.77403000       0.21067500      -1.24814600
C        0.07227700       0.19500000      -0.13513900
C       -0.07020400      -0.80706000       0.83417800
C       -1.05467800      -1.77013000       0.69068800
C       -1.92343900      -1.72459300      -0.39895900
H       -2.46097300      -0.69247600      -2.20651300
H       -2.69865400      -2.47283200      -0.50126600
H       -0.65219500       0.97850900      -2.00111700
H        0.61754100      -0.86722900       1.66955800
H       -1.13978700      -2.56532900       1.41956000
C        1.06086600       1.26540800      -0.04348900
N        1.23302600       2.00147000       1.09471200
H        0.59091300       1.87876900       1.86891100
H        1.63582700       2.92812500       1.00643100
H        1.37885900       1.74145700      -0.96246200
H        3.18986400      -0.19328600      -0.45506400
Cu       2.78079700       0.62507800       0.73044000
18
Properties=species:S:1:pos:R:3 energy=-1967.135114647725 pbc="F F F"
C       -1.78808100      -0.73736400      -1.36815500
C       -0.77996100       0.20833900      -1.25329400
C        0.06044000       0.20112200      -0.13479500
C       -0.08301300      -0.79788700       0.83865300
C       -1.06217900      -1.76543200       0.69302700
C       -1.92598700      -1.72689900      -0.40120000
H       -2.45934400      -0.70432800      -2.21554200
H       -2.69796900      -2.47838400      -0.50418300
H       -0.65708400       0.97373300      -2.00852200
H        0.60153400      -0.85089200       1.67700900
H       -1.14736500      -2.55925600       1.42334000
C        1.04177000       1.27457800      -0.04405100
N        1.24205400       1.99227900       1.09985100
H        0.61963000       1.85831800       1.88861400
H        1.63957300       2.92205100       1.01563900
H        1.35096700       1.75983500      -0.96149100
H        3.25823500      -0.20964600      -0.44278700
Cu       2.78677600       0.63983300       0.69788500
18
Properties=species:S:1:pos:R:3 energy=-1967.136419384556 pbc="F F F"
C       -1.78644200      -0.74543300      -1.37597200
C       -0.78299500       0.20457500      -1.25942700
C        0.04862900       0.20810700      -0.13359100
C       -0.09822400      -0.78561200       0.84568200
C       -1.07142600      -1.75815700       0.69773200
C       -1.92702800      -1.72961100      -0.40372900
H       -2.45166100      -0.72066700      -2.22835800
H       -2.69491900      -2.48509400      -0.50804600
H       -0.65730300       0.96589900      -2.01831300
H        0.58065200      -0.82938000       1.68910900
H       -1.15885200      -2.54869000       1.43127200
C        1.02271500       1.28442500      -0.04294800
N        1.25340300       1.98060100       1.10725000
H        0.65344500       1.83143300       1.91084900
H        1.64498900       2.91356600       1.02927600
H        1.31917300       1.78219700      -0.95811400
H        3.31183800      -0.21826600      -0.44484800
Cu       2.79400300       0.65010600       0.66217600
18
Properties=species:S:1:pos:R:3 energy=-1967.137462233072 pbc="F F F"
C       -1.78195500      -0.75435800      -1.38418900
C       -0.78349800       0.20021700      -1.26544600
C        0.03822000       0.21510900      -0.13172100
C       -0.11345000      -0.77245300       0.85381900
C       -1.08098800      -1.74976000       0.70358100
C       -1.92673900      -1.73226100      -0.40613300
H       -2.43995800      -0.73851600      -2.24240300
H       -2.69036300      -2.49183000      -0.51208000
H       -0.65380200       0.95677100      -2.02845400
H        0.55808400      -0.80669500       1.70346300
H       -1.17214200      -2.53587600       1.44135800
C        1.00576700       1.29387500      -0.04049800
N        1.26459800       1.96856200       1.11517800
H        0.68698300       1.80283100       1.93202300
H        1.65104500       2.90436800       1.04472500
H        1.28849900       1.80479400      -0.95280000
H        3.34945300      -0.22065600      -0.45863400
Cu       2.80024400       0.65587800       0.62821100
18
Properties=species:S:1:pos:R:3 energy=-1967.138256428722 pbc="F F F"
C       -1.77591200      -0.76313100      -1.39198800
C       -0.78223500       0.19579100      -1.27077500
C        0.02946000       0.22152600      -0.12944700
C       -0.12759300      -0.75985800       0.86201700
C       -1.09004600      -1.74138900       0.70966500
C       -1.92556300      -1.73469700      -0.40827200
H       -2.42640700      -0.75591000      -2.25599200
H       -2.68519200      -2.49802500      -0.51588200
H       -0.64815800       0.94756800      -2.03773600
H        0.53586000      -0.78509400       1.71825600
H       -1.18569100      -2.52268600       1.45193300
C        0.99143200       1.30235000      -0.03724200
N        1.27474900       1.95731100       1.12290400
H        0.71719400       1.77580300       1.95048700
H        1.65725500       2.89531500       1.06014500
H        1.26131800       1.82558900      -0.94648800
H        3.37437500      -0.21881100      -0.47947200
Cu       2.80515300       0.65834700       0.59788800
18
Properties=species:S:1:pos:R:3 energy=-1967.138859983447 pbc="F F F"
C       -1.76939100      -0.77107800      -1.39883200
C       -0.78007400       0.19173800      -1.27515700
C        0.02240200       0.22696100      -0.12712800
C       -0.13998900      -0.74876400       0.86955100
C       -1.09813500      -1.73378700       0.71532100
C       -1.92398300      -1.73686200      -0.41009500
H       -2.41279800      -0.77161900      -2.26816100
H       -2.68019400      -2.50338000      -0.51923400
H       -0.64175300       0.93914400      -2.04559900
H        0.51551700      -0.76590100       1.73205100
H       -1.19842500      -2.51039800       1.46184800
C        0.97976400       1.30950000      -0.03372900
N        1.28353100       1.94737800       1.12989600
H        0.74299100       1.75206200       1.96571700
H        1.66301800       2.88708800       1.07422600
H        1.23847200       1.84357900      -0.93993300
H        3.39022700      -0.21485400      -0.50255500
Cu       2.80881900       0.65919300       0.57181400
18
Properties=species:S:1:pos:R:3 energy=-1967.1393369161 pbc="F F F"
C       -1.76278500      -0.77841800      -1.40487400
C       -0.77741900       0.18804600      -1.27881600
C        0.01638600       0.23164200      -0.12479000
C       -0.15105800      -0.73884100       0.87646000
C       -1.10551900      -1.72694400       0.72053100
C       -1.92222000      -1.73877700      -0.41170600
H       -2.39947200      -0.78596500      -2.27916000
H       -2.67549600      -2.50809500      -0.52220000
H       -0.63511400       0.93144200      -2.05237400
H        0.49682300      -0.74870700       1.74475000
H       -1.21038400      -2.49901200       1.47103800
C        0.97003800       1.31575200      -0.02997600
N        1.29123800       1.93840400       1.13621500
H        0.76545200       1.73112300       1.97863100
H        1.66843400       2.87957000       1.08712900
H        1.21883700       1.85943400      -0.93332600
H        3.40066000      -0.20994300      -0.52622400
Cu       2.81159800       0.65928700       0.54869000
18
Properties=species:S:1:pos:R:3 energy=-1967.139725334532 pbc="F F F"
C       -1.75627600      -0.78513700      -1.41030600
C       -0.77462100       0.18460700      -1.28192800
C        0.01121500       0.23584400      -0.12242800
C       -0.16111200      -0.73004200       0.88277600
C       -1.11231100      -1.72072400       0.72530200
C       -1.92050200      -1.74055100      -0.41310800
H       -2.38658200      -0.79912800      -2.28912900
H       -2.67115700      -2.51223300      -0.52485900
H       -0.62849200       0.92439700      -2.05822700
H        0.47966400      -0.73346400       1.75637400
H       -1.22164200      -2.48852900       1.47949800
C        0.96167200       1.32116000      -0.02629800
N        1.29822000       1.93045100       1.14203700
H        0.78538300       1.71258400       1.98980500
H        1.67349800       2.87265600       1.09885300
H        1.20160800       1.87353600      -0.92678400
H        3.40768500      -0.20461200      -0.54942000
Cu       2.81375100       0.65918500       0.52784400
18
Properties=species:S:1:pos:R:3 energy=-1967.140060157075 pbc="F F F"
C       -1.74989600      -0.79140700      -1.41523400
C       -0.77171600       0.18137700      -1.28455100
C        0.00661000       0.23962800      -0.12001100
C       -0.17042600      -0.72211100       0.88867400
C       -1.11878300      -1.71501700       0.72971900
C       -1.91886700      -1.74219300      -0.41437900
H       -2.37401200      -0.81139500      -2.29835900
H       -2.66719200      -2.51594100      -0.52732800
H       -0.62186800       0.91784500      -2.06333900
H        0.46364400      -0.71997000       1.76712200
H       -1.23245800      -2.47876500       1.48733400
C        0.95420100       1.32601200      -0.02259300
N        1.30469600       1.92326600       1.14741300
H        0.80369400       1.69588500       1.99976000
H        1.67822100       2.86638100       1.10954200
H        1.18599900       1.88631000      -0.92031700
H        3.41262400      -0.19913900      -0.57193800
Cu       2.81553000       0.65923500       0.50848500
18
Properties=species:S:1:pos:R:3 energy=-1967.140346167747 pbc="F F F"
C       -1.74358800      -0.79724600      -1.41988000
C       -0.76879400       0.17830800      -1.28674800
C        0.00249300       0.24306600      -0.11748700
C       -0.17929400      -0.71494400       0.89427000
C       -1.12503200      -1.70967000       0.73387400
C       -1.91735800      -1.74379700      -0.41556700
H       -2.36167000      -0.82296800      -2.30700700
H       -2.66357400      -2.51930500      -0.52968000
H       -0.61522400       0.91162000      -2.06782100
H        0.44846400      -0.70790300       1.77718800
H       -1.24303500      -2.46962600       1.49466500
C        0.94723600       1.33038500      -0.01903000
N        1.31090300       1.91685400       1.15249600
H        0.82105600       1.68052000       2.00886100
H        1.68264000       2.86065100       1.11930600
H        1.17145900       1.89806100      -0.91389800
H        3.41623000      -0.19354000      -0.59369100
Cu       2.81708800       0.65953600       0.49014900
18
Properties=species:S:1:pos:R:3 energy=-1967.140578762664 pbc="F F F"
C       -1.73741200      -0.80289800      -1.42412900
C       -0.76581800       0.17537700      -1.28864900
C       -0.00149800       0.24616400      -0.11488000
C       -0.18773300      -0.70831800       0.89965300
C       -1.13114400      -1.70476700       0.73774000
C       -1.91598100      -1.74525600      -0.41669100
H       -2.34954400      -0.83392200      -2.31520300
H       -2.66026100      -2.52242200      -0.53200100
H       -0.60858500       0.90573300      -2.07178100
H        0.43400200      -0.69697600       1.78672000
H       -1.25344300      -2.46100500       1.50151200
C        0.94089600       1.33446500      -0.01529000
N        1.31681700       1.91083900       1.15705500
H        0.83786300       1.66621800       2.01726200
H        1.68680900       2.85546900       1.12823500
H        1.15768000       1.90901000      -0.90761300
H        3.41898300      -0.18792200      -0.61469700
Cu       2.81836700       0.66020800       0.47275700
18
Properties=species:S:1:pos:R:3 energy=-1967.140891675703 pbc="F F F"
C       -1.73132100      -0.80831200      -1.42815800
C       -0.76279700       0.17253300      -1.29024700
C       -0.00530900       0.24910400      -0.11218400
C       -0.19585000      -0.70214200       0.90477300
C       -1.13715400      -1.70016200       0.74143000
C       -1.91473000      -1.74664400      -0.41776300
H       -2.33759100      -0.84441400      -2.32304100
H       -2.65719900      -2.52536400      -0.53430700
H       -0.60199700       0.90010900      -2.07527900
H        0.42007200      -0.68685300       1.79578100
H       -1.26373400      -2.45285600       1.50798200
C        0.93481200       1.33829600      -0.01155200
N        1.32269100       1.90517000       1.16121600
H        0.85443200       1.65258500       2.02508100
H        1.69073400       2.85071000       1.13645300
H        1.14436300       1.91934200      -0.90140400
H        3.42118500      -0.18235600      -0.63488800
Cu       2.81939300       0.66125500       0.45610600
18
Properties=species:S:1:pos:R:3 energy=-1967.141039615655 pbc="F F F"
C       -1.72531700      -0.81353900      -1.43200000
C       -0.75981800       0.16978300      -1.29164300
C       -0.00901600       0.25187200      -0.10941700
C       -0.20389700      -0.69624500       0.90982600
C       -1.14316000      -1.69570800       0.74500000
C       -1.91349000      -1.74806700      -0.41886000
H       -2.32566600      -0.85467500      -2.33064500
H       -2.65429100      -2.52819800      -0.53660000
H       -0.59543000       0.89463400      -2.07845100
H        0.40645300      -0.67719400       1.80447200
H       -1.27398900      -2.44501500       1.51415100
C        0.92895100       1.34195400      -0.00779700
N        1.32855100       1.89982300       1.16520100
H        0.87104000       1.63932900       2.03236600
H        1.69451900       2.84615900       1.14421700
H        1.13131000       1.92925600      -0.89517000
H        3.42300500      -0.17675400      -0.65446700
Cu       2.82024700       0.66258400       0.43981800
18
Properties=species:S:1:pos:R:3 energy=-1967.141278114307 pbc="F F F"
C       -1.71939500      -0.81867100      -1.43564100
C       -0.75697800       0.16710500      -1.29290000
C       -0.01262100       0.25455300      -0.10662800
C       -0.21177600      -0.69064400       0.91473800
C       -1.14913200      -1.69148600       0.74838100
C       -1.91234500      -1.74942800      -0.41998200
H       -2.31390200      -0.86461100      -2.33793600
H       -2.65149600      -2.53089700      -0.53886500
H       -0.58897100       0.88939300      -2.08132900
H        0.39324000      -0.66795000       1.81281600
H       -1.28410300      -2.43750500       1.52003400
C        0.92330500       1.34551000      -0.00404000
N        1.33439800       1.89456500       1.16876400
H        0.88761200       1.62633800       2.03921800
H        1.69820400       2.84193900       1.15146500
H        1.11846700       1.93880500      -0.88900700
H        3.42459100      -0.17119800      -0.67312100
Cu       2.82090400       0.66418100       0.42403300
18
Properties=species:S:1:pos:R:3 energy=-1967.141478128555 pbc="F F F"
C       -1.71357000      -0.82369000      -1.43915500
C       -0.75409300       0.16459800      -1.29394200
C       -0.01631400       0.25698400      -0.10386000
C       -0.21957200      -0.68513500       0.91948300
C       -1.15506000      -1.68743800       0.75168400
C       -1.91121200      -1.75076200      -0.42104200
H       -2.30224900      -0.87433500      -2.34501500
H       -2.64883600      -2.53358500      -0.54113900
H       -0.58264500       0.88430600      -2.08396900
H        0.38027100      -0.65903100       1.82088100
H       -1.29416100      -2.43019600       1.52564500
C        0.91775000       1.34894000      -0.00026600
N        1.34034000       1.88946200       1.17213000
H        0.90433400       1.61348400       2.04558000
H        1.70170800       2.83786300       1.15837700
H        1.10578500       1.94814800      -0.88292000
H        3.42615000      -0.16579100      -0.69101800
Cu       2.82137500       0.66617600       0.40854700
18
Properties=species:S:1:pos:R:3 energy=-1967.141672169245 pbc="F F F"
C       -1.70776900      -0.82861100      -1.44258200
C       -0.75133100       0.16209900      -1.29490100
C       -0.01992100       0.25948900      -0.10105900
C       -0.22736600      -0.67983600       0.92418300
C       -1.16099200      -1.68344300       0.75488100
C       -1.91014700      -1.75212300      -0.42206600
H       -2.29062500      -0.88393900      -2.35190800
H       -2.64618500      -2.53623500      -0.54342300
H       -0.57639800       0.87934700      -2.08640200
H        0.36738900      -0.65033800       1.82875800
H       -1.30425200      -2.42304300       1.53109500
C        0.91222900       1.35224600       0.00340000
N        1.34635500       1.88446400       1.17529800
H        0.92122300       1.60065600       2.05157400
H        1.70516000       2.83387300       1.16504900
H        1.09314900       1.95730100      -0.87675000
H        3.42776500      -0.16045100      -0.70835800
Cu       2.82171600       0.66854200       0.39321100
18
Properties=species:S:1:pos:R:3 energy=-1967.141859166298 pbc="F F F"
C       -1.70200900      -0.83344400      -1.44590300
C       -0.74860300       0.15968200      -1.29572100
C       -0.02350700       0.26190000      -0.09825300
C       -0.23509200      -0.67466500       0.92878700
C       -1.16693400      -1.67954900       0.75801100
C       -1.90911500      -1.75348500      -0.42307200
H       -2.27906800      -0.89340300      -2.35861800
H       -2.64359600      -2.53889300      -0.54571200
H       -0.57026500       0.87451300      -2.08864400
H        0.35455800      -0.64183600       1.83650000
H       -1.31436800      -2.41600000       1.53637700
C        0.90675100       1.35544600       0.00700200
N        1.35239500       1.87954100       1.17826000
H        0.93818100       1.58785400       2.05717300
H        1.70857500       2.82995000       1.17151000
H        1.08057200       1.96632400      -0.87054400
H        3.42949900      -0.15514500      -0.72515300
Cu       2.82202600       0.67121100       0.37799900
18
Properties=species:S:1:pos:R:3 energy=-1967.142006896704 pbc="F F F"
C       -1.69632400      -0.83819000      -1.44912200
C       -0.74587800       0.15716500      -1.29655100
C       -0.02710600       0.26442900      -0.09536200
C       -0.24278100      -0.66971400       0.93332600
C       -1.17282300      -1.67573600       0.76103700
C       -1.90817000      -1.75485700      -0.42406600
H       -2.26753700      -0.90275000      -2.36513500
H       -2.64098800      -2.54151900      -0.54800100
H       -0.56423600       0.86983500      -2.09071400
H        0.34168800      -0.63338500       1.84423500
H       -1.32457900      -2.40903800       1.54157700
C        0.90139900       1.35854900       0.01050900
N        1.35840900       1.87470400       1.18111300
H        0.95518500       1.57490700       2.06240600
H        1.71193500       2.82601300       1.17780500
H        1.06799200       1.97527900      -0.86432500
H        3.43146500      -0.14988700      -0.74153700
Cu       2.82235000       0.67419400       0.36280700
18
Properties=species:S:1:pos:R:3 energy=-1967.142239747948 pbc="F F F"
C       -1.69065600      -0.84293600      -1.45216900
C       -0.74340400       0.15491700      -1.29716800
C       -0.03044500       0.26650000      -0.09267000
C       -0.25036200      -0.66480000       0.93778800
C       -1.17882700      -1.67191800       0.76403200
C       -1.90706500      -1.75627100      -0.42510400
H       -2.25612400      -0.91188700      -2.37138200
H       -2.63840400      -2.54407100      -0.55023300
H       -0.55831600       0.86525500      -2.09260200
H        0.32875000      -0.62491100       1.85188800
H       -1.33470900      -2.40214000       1.54655700
C        0.89591500       1.36174200       0.01416400
N        1.36435800       1.86975900       1.18358500
H        0.97206300       1.56191200       2.06700800
H        1.71519600       2.82209200       1.18406800
H        1.05563000       1.98401400      -0.85801100
H        3.43362600      -0.14462800      -0.75742600
Cu       2.82277400       0.67737100       0.34767600
18
Properties=species:S:1:pos:R:3 energy=-1967.142371498177 pbc="F F F"
C       -1.68503300      -0.84758500      -1.45515600
C       -0.74081600       0.15265500      -1.29771500
C       -0.03386200       0.26878000      -0.08990300
C       -0.25784900      -0.65985000       0.94222900
C       -1.18456700      -1.66822900       0.76695500
C       -1.90604300      -1.75763400      -0.42601800
H       -2.24488900      -0.92090300      -2.37751700
H       -2.63584600      -2.54671700      -0.55247300
H       -0.55254200       0.86084100      -2.09436200
H        0.31569000      -0.61632700       1.85955100
H       -1.34491800      -2.39536200       1.55151500
C        0.89075800       1.36475500       0.01767700
N        1.37002900       1.86483800       1.18596500
H        0.98872300       1.54871700       2.07120000
H        1.71841000       2.81802400       1.19030100
H        1.04337800       1.99266100      -0.85169300
H        3.43616700      -0.13947600      -0.77314300
Cu       2.82321000       0.68080900       0.33258700
18
Properties=species:S:1:pos:R:3 energy=-1967.142521612316 pbc="F F F"
C       -1.67948500      -0.85212700      -1.45800100
C       -0.73827300       0.15041700      -1.29825100
C       -0.03720900       0.27097800      -0.08721900
C       -0.26522700      -0.65499700       0.94657000
C       -1.19029400      -1.66456300       0.76984700
C       -1.90492400      -1.75898700      -0.42694100
H       -2.23380600      -0.92973400      -2.38338800
H       -2.63322200      -2.54932600      -0.55462500
H       -0.54693300       0.85654500      -2.09594600
H        0.30252800      -0.60754700       1.86720000
H       -1.35504200      -2.38861000       1.55635700
C        0.88555300       1.36780400       0.02117900
N        1.37561100       1.85984000       1.18814700
H        1.00509500       1.53521700       2.07490800
H        1.72152500       2.81392200       1.19652400
H        1.03130200       2.00119900      -0.84541100
H        3.43902200      -0.13431300      -0.78842800
Cu       2.82377900       0.68428100       0.31747800
18
Properties=species:S:1:pos:R:3 energy=-1967.142692716329 pbc="F F F"
C       -1.67398000      -0.85666500      -1.46073900
C       -0.73582200       0.14823000      -1.29874100
C       -0.04058800       0.27308500      -0.08459600
C       -0.27265100      -0.65013100       0.95090100
C       -1.19601600      -1.66090500       0.77267900
C       -1.90376100      -1.76037800      -0.42783200
H       -2.22276600      -0.93845500      -2.38901100
H       -2.63048900      -2.55191000      -0.55671700
H       -0.54140200       0.85237900      -2.09747800
H        0.28921600      -0.59851300       1.87492400
H       -1.36512600      -2.38181300       1.56109600
C        0.88029600       1.37083300       0.02463700
N        1.38107700       1.85476100       1.19018900
H        1.02131600       1.52140100       2.07814800
H        1.72457000       2.80969300       1.20284500
H        1.01936400       2.00969900      -0.83905400
H        3.44233100      -0.12916700      -0.80355000
Cu       2.82442900       0.68785700       0.30229900
18
Properties=species:S:1:pos:R:3 energy=-1967.142826022763 pbc="F F F"
C       -1.66847600      -0.86117600      -1.46339800
C       -0.73339600       0.14607000      -1.29920900
C       -0.04403500       0.27525100      -0.08198100
C       -0.28010700      -0.64518900       0.95521000
C       -1.20171800      -1.65724300       0.77550600
C       -1.90255000      -1.76177200      -0.42867800
H       -2.21179000      -0.94714200      -2.39450400
H       -2.62767800      -2.55457000      -0.55878000
H       -0.53596100       0.84826100      -2.09892800
H        0.27560800      -0.58924200       1.88267400
H       -1.37526400      -2.37500300       1.56580300
C        0.87505800       1.37382700       0.02809800
N        1.38641500       1.84959300       1.19211500
H        1.03755200       1.50728800       2.08101300
H        1.72760300       2.80528000       1.20922800
H        1.00746900       2.01819700      -0.83258700
H        3.44617900      -0.12394800      -0.81860000
Cu       2.82509100       0.69151700       0.28701800
18
Properties=species:S:1:pos:R:3 energy=-1967.142938810591 pbc="F F F"
C       -1.66298800      -0.86570100      -1.46597900
C       -0.73101900       0.14394600      -1.29962700
C       -0.04753900       0.27740400      -0.07938400
C       -0.28765100      -0.64016300       0.95951400
C       -1.20747100      -1.65356700       0.77831900
C       -1.90129100      -1.76320700      -0.42950800
H       -2.20084100      -0.95581200      -2.39987200
H       -2.62479200      -2.55732600      -0.56083500
H       -0.53059400       0.84419800      -2.10031400
H        0.26163900      -0.57978000       1.89046800
H       -1.38548200      -2.36815300       1.57047100
C        0.86979000       1.37682900       0.03163600
N        1.39164600       1.84433400       1.19388300
H        1.05391900       1.49294100       2.08353600
H        1.73070900       2.80072700       1.21560600
H        0.99557700       2.02666400      -0.82597100
H        3.45056200      -0.11845100      -0.83358400
Cu       2.82582600       0.69511900       0.27164000
18
Properties=species:S:1:pos:R:3 energy=-1967.14306486545 pbc="F F F"
C       -1.65749500      -0.87021700      -1.46851400
C       -0.72871600       0.14184700      -1.30000400
C       -0.05109200       0.27958900      -0.07675100
C       -0.29539700      -0.63510300       0.96382600
C       -1.21329300      -1.64987800       0.78110200
C       -1.90002400      -1.76470800      -0.43034100
H       -2.18989300      -0.96448400      -2.40510100
H       -2.62178200      -2.56020200      -0.56290200
H       -0.52532200       0.84017200      -2.10161500
H        0.24728400      -0.57017200       1.89834100
H       -1.39582000      -2.36126400       1.57510600
C        0.86442800       1.37978900       0.03519000
N        1.39683300       1.83905200       1.19548900
H        1.07055700       1.47838000       2.08573400
H        1.73393100       2.79603400       1.22193000
H        0.98367500       2.03512600      -0.81919000
H        3.45554100      -0.11266600      -0.84858000
Cu       2.82658200       0.69870500       0.25628200
18
Properties=species:S:1:pos:R:3 energy=-1967.143186356962 pbc="F F F"
C       -1.65203300      -0.87472000      -1.47103000
C       -0.72653200       0.13972200      -1.30026000
C       -0.05469800       0.28187900      -0.07408100
C       -0.30336600      -0.63001500       0.96815300
C       -1.21921200      -1.64615100       0.78383900
C       -1.89877200      -1.76634900      -0.43116700
H       -2.17892000      -0.97315000      -2.41019400
H       -2.61858900      -2.56319000      -0.56501700
H       -0.52014700       0.83624500      -2.10283600
H        0.23252800      -0.56047500       1.90628900
H       -1.40629300      -2.35439000       1.57970800
C        0.85901600       1.38271600       0.03874300
N        1.40198700       1.83383200       1.19699400
H        1.08750200       1.46370200       2.08754600
H        1.73731200       2.79114800       1.22812100
H        0.97175400       2.04350200      -0.81222900
H        3.46104800      -0.10650300      -0.86355900
Cu       2.82741700       0.70219600       0.24098000
18
Properties=species:S:1:pos:R:3 energy=-1967.143292771719 pbc="F F F"
C       -1.64655700      -0.87924900      -1.47336800
C       -0.72440300       0.13776800      -1.30048900
C       -0.05852900       0.28406800      -0.07131900
C       -0.31148100      -0.62479800       0.97254400
C       -1.22527900      -1.64251300       0.78662200
C       -1.89741200      -1.76795000      -0.43201300
H       -2.16795300      -0.98180900      -2.41524800
H       -2.61530600      -2.56644500      -0.56722300
H       -0.51512200       0.83236300      -2.10387100
H        0.21737000      -0.55074400       1.91425500
H       -1.41689800      -2.34748100       1.58417700
C        0.85357600       1.38560500       0.04246300
N        1.40707400       1.82852700       1.19822500
H        1.10472000       1.44894300       2.08904000
H        1.74095000       2.78624900       1.23413900
H        0.95983400       2.05186400      -0.80519400
H        3.46706800      -0.09999800      -0.87849300
Cu       2.82834800       0.70560200       0.22575500
18
Properties=species:S:1:pos:R:3 energy=-1967.143384824664 pbc="F F F"
C       -1.64116000      -0.88373400      -1.47565000
C       -0.72243800       0.13586200      -1.30056800
C       -0.06246200       0.28632300      -0.06850700
C       -0.31977200      -0.61957500       0.97693200
C       -1.23142300      -1.63888600       0.78933100
C       -1.89607400      -1.76964200      -0.43287100
H       -2.15699100      -0.99040800      -2.42013300
H       -2.61183800      -2.56982400      -0.56948600
H       -0.51027300       0.82865200      -2.10473800
H        0.20204200      -0.54103700       1.92218300
H       -1.42756900      -2.34067800       1.58856100
C        0.84812300       1.38843700       0.04618900
N        1.41209700       1.82324500       1.19927600
H        1.12199700       1.43430000       2.09015100
H        1.74482400       2.78122200       1.23989700
H        0.94800400       2.06003300      -0.79804900
H        3.47352600      -0.09321400      -0.89329100
Cu       2.82938800       0.70892400       0.21077500
18
Properties=species:S:1:pos:R:3 energy=-1967.143446268527 pbc="F F F"
C       -1.63581700      -0.88819100      -1.47786500
C       -0.72063200       0.13405200      -1.30053400
C       -0.06653300       0.28864000      -0.06562400
C       -0.32824900      -0.61432300       0.98134900
C       -1.23766000      -1.63525500       0.79204700
C       -1.89472200      -1.77140900      -0.43370400
H       -2.14598900      -0.99901100      -2.42492100
H       -2.60821400      -2.57336800      -0.57180400
H       -0.50559600       0.82509100      -2.10546100
H        0.18654700      -0.53125700       1.93002900
H       -1.43835800      -2.33392000       1.59286400
C        0.84259900       1.39119400       0.04995500
N        1.41707600       1.81793000       1.20022200
H        1.13928200       1.41970000       2.09090300
H        1.74896800       2.77598700       1.24543900
H        0.93624400       2.06808300      -0.79080700
H        3.48047900      -0.08611600      -0.90801500
Cu       2.83057500       0.71217500       0.19592700
18
Properties=species:S:1:pos:R:3 energy=-1967.143529360391 pbc="F F F"
C       -1.63052700      -0.89262000      -1.47995700
C       -0.71900400       0.13235900      -1.30042700
C       -0.07078000       0.29097300      -0.06275100
C       -0.33682500      -0.60900900       0.98576300
C       -1.24397100      -1.63165900       0.79474200
C       -1.89335700      -1.77318900      -0.43448900
H       -2.13503500      -1.00758500      -2.42957400
H       -2.60444000      -2.57705400      -0.57412700
H       -0.50117000       0.82168500      -2.10603200
H        0.17104700      -0.52140000       1.93770100
H       -1.44916600      -2.32721800       1.59706500
C        0.83709300       1.39390100       0.05374100
N        1.42195900       1.81248800       1.20100700
H        1.15627000       1.40521700       2.09134200
H        1.75342900       2.77051300       1.25079500
H        0.92471000       2.07595400      -0.78352100
H        3.48788300      -0.07867500      -0.92257000
Cu       2.83188300       0.71531800       0.18129200
18
Properties=species:S:1:pos:R:3 energy=-1967.14358301021 pbc="F F F"
C       -1.62533500      -0.89702000      -1.48196400
C       -0.71755700       0.13074600      -1.30026200
C       -0.07511300       0.29342800      -0.05987700
C       -0.34552100      -0.60362900       0.99011100
C       -1.25030000      -1.62802700       0.79743000
C       -1.89197200      -1.77501900      -0.43523000
H       -2.12413300      -1.01617300      -2.43406800
H       -2.60048800      -2.58086100      -0.57639800
H       -0.49697700       0.81843000      -2.10653500
H        0.15549300      -0.51136200       1.94521700
H       -1.45996000      -2.32053600       1.60123600
C        0.83158500       1.39653600       0.05747000
N        1.42677800       1.80686800       1.20176300
H        1.17286100       1.39076900       2.09140900
H        1.75817200       2.76464700       1.25606700
H        0.91349000       2.08366500      -0.77617900
H        3.49570800      -0.07083400      -0.93704300
Cu       2.83326900       0.71837300       0.16685200
18
Properties=species:S:1:pos:R:3 energy=-1967.143633479327 pbc="F F F"
C       -1.62016600      -0.90135600      -1.48388800
C       -0.71621400       0.12921700      -1.30005600
C       -0.07964100       0.29597500      -0.05702100
C       -0.35433200      -0.59818300       0.99443000
C       -1.25661700      -1.62436300       0.80011900
C       -1.89055100      -1.77689800      -0.43590100
H       -2.11330600      -1.02478500      -2.43840500
H       -2.59634200      -2.58483800      -0.57859900
H       -0.49300400       0.81527000      -2.10701500
H        0.13974300      -0.50110400       1.95260700
H       -1.47067300      -2.31384900       1.60534400
C        0.82622000       1.39910200       0.06121400
N        1.43156300       1.80100500       1.20239500
H        1.18901800       1.37631500       2.09119900
H        1.76323400       2.75844500       1.26132600
H        0.90268300       2.09126300      -0.76883700
H        3.50373600      -0.06256200      -0.95151700
Cu       2.83464900       0.72134700       0.15260500
18
Properties=species:S:1:pos:R:3 energy=-1967.143639464543 pbc="F F F"
C       -1.61506600      -0.90574900      -1.48569500
C       -0.71504200       0.12779400      -1.29979100
C       -0.08416700       0.29855500      -0.05416200
C       -0.36330600      -0.59254500       0.99871600
C       -1.26295200      -1.62074500       0.80276700
C       -1.88901700      -1.77885500      -0.43659500
H       -2.10246500      -1.03335800      -2.44258800
H       -2.59199400      -2.58898400      -0.58082100
H       -0.48913600       0.81217800      -2.10740400
H        0.12354200      -0.49070700       1.96003600
H       -1.48134500      -2.30726200       1.60937500
C        0.82089400       1.40165000       0.06500800
N        1.43649800       1.79501100       1.20295400
H        1.20504200       1.36194400       2.09068100
H        1.76860200       2.75201000       1.26650300
H        0.89225000       2.09868500      -0.76144100
H        3.51170600      -0.05393200      -0.96599700
Cu       2.83595800       0.72431000       0.13845400
18
Properties=species:S:1:pos:R:3 energy=-1967.143651591882 pbc="F F F"
C       -1.60988400      -0.91005200      -1.48746600
C       -0.71390900       0.12643600      -1.29935800
C       -0.08887200       0.30123800      -0.05119300
C       -0.37257000      -0.58697100       1.00309600
C       -1.26932200      -1.61720600       0.80532500
C       -1.88741300      -1.78095400      -0.43728100
H       -2.09153600      -1.04189000      -2.44666900
H       -2.58739800      -2.59335600      -0.58314700
H       -0.48532000       0.80916300      -2.10764700
H        0.10666300      -0.48020300       1.96760800
H       -1.49200800      -2.30081700       1.61325800
C        0.81562800       1.40415400       0.06886500
N        1.44164700       1.78900900       1.20340800
H        1.22131800       1.34776300       2.08995700
H        1.77433100       2.74551100       1.27142500
H        0.88200500       2.10599200      -0.75397600
H        3.51954300      -0.04508000      -0.98053100
Cu       2.83709600       0.72726400       0.12432700
18
Properties=species:S:1:pos:R:3 energy=-1967.143638012442 pbc="F F F"
C       -1.60423700      -0.91435300      -1.48909100
C       -0.71162100       0.12449100      -1.29808900
C       -0.09171300       0.30215900      -0.04734600
C       -0.38222800      -0.58400200       1.00735400
C       -1.27681300      -1.61548500       0.80710400
C       -1.88633000      -1.78396100      -0.43895100
H       -2.08033900      -1.04917100      -2.45069200
H       -2.58375800      -2.59815900      -0.58706000
H       -0.48116600       0.80590800      -2.10700200
H        0.08679200      -0.47258200       1.97604200
H       -1.50454200      -2.29575000       1.61648600
C        0.81398300       1.40456800       0.07287300
N        1.45169600       1.78380200       1.20365500
H        1.24132400       1.33951400       2.09132100
H        1.78020400       2.74167000       1.27409800
H        0.87342500       2.11126100      -0.74654200
H        3.51927600      -0.03595500      -0.99433600
Cu       2.83604600       0.73604500       0.11017600
