18
Coordinates from ORCA-job orca_MEP E -1967.196362870513
  C      -1.920757     -0.560856     -1.002799
  C      -0.825010      0.292364     -1.108773
  C       0.335999      0.039329     -0.385000
  C       0.390601     -1.093861      0.443472
  C      -0.710073     -1.940332      0.556346
  C      -1.869565     -1.669408     -0.164666
  H      -2.818450     -0.354240     -1.571346
  H      -2.724751     -2.327506     -0.082388
  H      -0.875255      1.162129     -1.752585
  H       1.318771     -1.345591      0.950455
  H      -0.652597     -2.816955      1.188552
  C       1.483638      1.015078     -0.373293
  N       1.380935      1.861376      0.857769
  H       0.761183      2.648944      0.683570
  H       2.285991      2.254937      1.099130
  H       1.480812      1.639943     -1.266712
  H       2.434230      0.486061     -0.321766
  Cu      0.524299      0.708588      2.250033
18
Coordinates from ORCA-job orca_MEP E -1967.196350800294
  C      -1.920574     -0.565463     -1.009985
  C      -0.826682      0.290593     -1.111826
  C       0.331716      0.041798     -0.382507
  C       0.385095     -1.089292      0.448566
  C      -0.714261     -1.937664      0.558867
  C      -1.870759     -1.671796     -0.169034
  H      -2.815515     -0.363080     -1.584492
  H      -2.724311     -2.332440     -0.090098
  H      -0.875864      1.158707     -1.757975
  H       1.311701     -1.339014      0.959674
  H      -0.658197     -2.812185      1.194010
  C       1.479225      1.017560     -0.373761
  N       1.388307      1.858890      0.861520
  H       0.764737      2.645480      0.696911
  H       2.295326      2.254279      1.092839
  H       1.468422      1.646817     -1.264068
  H       2.430354      0.488516     -0.333594
  Cu      0.551281      0.708294      2.264951
18
Coordinates from ORCA-job orca_MEP E -1967.196330482393
  C      -1.920453     -0.569661     -1.016988
  C      -0.828116      0.288894     -1.115148
  C       0.327630      0.044108     -0.380465
  C       0.379568     -1.084876      0.453162
  C      -0.718451     -1.935019      0.560985
  C      -1.872001     -1.673930     -0.173240
  H      -2.812760     -0.371135     -1.596919
  H      -2.724165     -2.336740     -0.097302
  H      -0.876227      1.155342     -1.763615
  H       1.304576     -1.332373      0.968497
  H      -0.663670     -2.807540      1.199016
  C       1.475138      1.019671     -0.374035
  N       1.394736      1.856457      0.864925
  H       0.766083      2.640949      0.709497
  H       2.302837      2.255313      1.086030
  H       1.457795      1.652878     -1.261458
  H       2.426576      0.490433     -0.343608
  Cu      0.580905      0.707230      2.280667
18
Coordinates from ORCA-job orca_MEP E -1967.196285475140
  C      -1.920356     -0.573462     -1.023685
  C      -0.829461      0.287293     -1.118523
  C       0.323727      0.046175     -0.378790
  C       0.374134     -1.080800      0.457082
  C      -0.722558     -1.932634      0.562673
  C      -1.873386     -1.675769     -0.177372
  H      -2.810223     -0.378423     -1.608561
  H      -2.724318     -2.340482     -0.104022
  H      -0.876416      1.152144     -1.769237
  H       1.297532     -1.326101      0.976529
  H      -0.668964     -2.803253      1.203384
  C       1.471412      1.021333     -0.374018
  N       1.400078      1.854293      0.867948
  H       0.765598      2.635789      0.720999
  H       2.308611      2.257875      1.078946
  H       1.448941      1.657946     -1.258922
  H       2.422924      0.491789     -0.351586
  Cu      0.612726      0.706286      2.297156
18
Coordinates from ORCA-job orca_MEP E -1967.196228747381
  C      -1.920322     -0.577006     -1.030140
  C      -0.830691      0.285766     -1.121853
  C       0.319977      0.048004     -0.377258
  C       0.368787     -1.077153      0.460512
  C      -0.726606     -1.930501      0.563998
  C      -1.874809     -1.677516     -0.181426
  H      -2.807814     -0.385165     -1.619664
  H      -2.724666     -2.343878     -0.110467
  H      -0.876449      1.149095     -1.774657
  H       1.290605     -1.320359      0.983938
  H      -0.674179     -2.799347      1.207218
  C       1.467880      1.022715     -0.373776
  N       1.404788      1.852345      0.870739
  H       0.764151      2.630363      0.731742
  H       2.313246      2.261295      1.071718
  H       1.441060      1.662361     -1.256398
  H       2.419396      0.492824     -0.358338
  Cu      0.645647      0.706156      2.314112
18
Coordinates from ORCA-job orca_MEP E -1967.196227355636
  C      -1.920200     -0.580472     -1.036530
  C      -0.831829      0.284238     -1.125015
  C       0.316312      0.049740     -0.375588
  C       0.363553     -1.073688      0.464023
  C      -0.730704     -1.928440      0.565329
  C      -1.876259     -1.679174     -0.185483
  H      -2.805257     -0.391757     -1.630696
  H      -2.725043     -2.347156     -0.116900
  H      -0.876291      1.146108     -1.779821
  H       1.283781     -1.315023      0.991323
  H      -0.679570     -2.795561      1.210994
  C       1.464381      1.024078     -0.373484
  N       1.409460      1.850467      0.873446
  H       0.762526      2.624738      0.742520
  H       2.317622      2.265063      1.064320
  H       1.433095      1.666707     -1.253823
  H       2.415896      0.493948     -0.365077
  Cu      0.678526      0.706184      2.330462
18
Coordinates from ORCA-job orca_MEP E -1967.196181623715
  C      -1.919899     -0.583932     -1.042913
  C      -0.832801      0.282691     -1.128051
  C       0.312739      0.051537     -0.373698
  C       0.358407     -1.070085      0.468009
  C      -0.734877     -1.926134      0.567019
  C      -1.877623     -1.680728     -0.189401
  H      -2.802380     -0.398430     -1.641913
  H      -2.725326     -2.350354     -0.123315
  H      -0.875895      1.143107     -1.784863
  H       1.277033     -1.309769      0.999115
  H      -0.685273     -2.791484      1.215184
  C       1.460869      1.025657     -0.373300
  N       1.414418      1.848506      0.876157
  H       0.761037      2.618827      0.753842
  H       2.322076      2.268921      1.056809
  H       1.424564      1.671377     -1.251216
  H       2.412405      0.495441     -0.372490
  Cu      0.710526      0.704851      2.345028
18
Coordinates from ORCA-job orca_MEP E -1967.196128883994
  C      -1.919440     -0.587325     -1.049206
  C      -0.833570      0.281163     -1.131036
  C       0.309327      0.053401     -0.371728
  C       0.353355     -1.066273      0.472360
  C      -0.739074     -1.923526      0.569077
  C      -1.878892     -1.682107     -0.193077
  H      -2.799257     -0.405054     -1.653104
  H      -2.725534     -2.353345     -0.129518
  H      -0.875243      1.140101     -1.789893
  H       1.270385     -1.304500      1.007217
  H      -0.691171     -2.787051      1.219810
  C       1.457446      1.027435     -0.373219
  N       1.419454      1.846485      0.878813
  H       0.759381      2.612524      0.765520
  H       2.326267      2.273040      1.049307
  H       1.415868      1.676236     -1.248653
  H       2.409001      0.497221     -0.380234
  Cu      0.741698      0.701576      2.357563
18
Coordinates from ORCA-job orca_MEP E -1967.196076001845
  C      -1.918912     -0.590508     -1.055287
  C      -0.834178      0.279681     -1.133986
  C       0.306079      0.055249     -0.369798
  C       0.348388     -1.062425      0.476765
  C      -0.743251     -1.920819      0.571219
  C      -1.880130     -1.683299     -0.196586
  H      -2.796066     -0.411350     -1.663892
  H      -2.725761     -2.356070     -0.135451
  H      -0.874387      1.137153     -1.794839
  H       1.263799     -1.299304      1.015408
  H      -0.697065     -2.782577      1.224477
  C       1.454228      1.029197     -0.373129
  N       1.424210      1.844540      0.881295
  H       0.757122      2.605854      0.777039
  H       2.329728      2.277761      1.041829
  H       1.407656      1.680874     -1.246207
  H       2.405764      0.498998     -0.387539
  Cu      0.772777      0.697044      2.368685
18
Coordinates from ORCA-job orca_MEP E -1967.195968467000
  C      -1.918361     -0.593480     -1.061117
  C      -0.834697      0.278275     -1.136850
  C       0.302991      0.056964     -0.367950
  C       0.343470     -1.058799      0.480919
  C      -0.747381     -1.918313      0.573158
  C      -1.881404     -1.684393     -0.200069
  H      -2.793043     -0.417122     -1.674125
  H      -2.726083     -2.358556     -0.141206
  H      -0.873409      1.134323     -1.799615
  H       1.257192     -1.294221      1.023549
  H      -0.702854     -2.778382      1.228729
  C       1.451233      1.030730     -0.372941
  N       1.428492      1.842783      0.883549
  H       0.754129      2.598887      0.788073
  H       2.332281      2.283213      1.034322
  H       1.400241      1.684986     -1.243853
  H       2.402684      0.500539     -0.393945
  Cu      0.804519      0.692568      2.379371
18
Coordinates from ORCA-job orca_MEP E -1967.195929930270
  C      -1.917900     -0.596210     -1.066746
  C      -0.835150      0.276904     -1.139621
  C       0.300008      0.058422     -0.366207
  C       0.338623     -1.055599      0.484648
  C      -0.751437     -1.916157      0.574655
  C      -1.882699     -1.685505     -0.203594
  H      -2.790209     -0.422368     -1.683837
  H      -2.726599     -2.360864     -0.146884
  H      -0.872383      1.131678     -1.804136
  H       1.250470     -1.289297      1.031490
  H      -0.708534     -2.774648      1.232401
  C       1.448420      1.031955     -0.372557
  N       1.432295      1.841217      0.885623
  H       0.750481      2.591688      0.798527
  H       2.333926      2.289310      1.026716
  H       1.393596      1.688496     -1.241550
  H       2.399739      0.501729     -0.399379
  Cu      0.837352      0.689249      2.390451
18
Coordinates from ORCA-job orca_MEP E -1967.195819551654
  C      -1.917524     -0.598759     -1.072226
  C      -0.835555      0.275557     -1.142331
  C       0.297136      0.059634     -0.364601
  C       0.333821     -1.052889      0.487830
  C      -0.755446     -1.914386      0.575675
  C      -1.884068     -1.686654     -0.207202
  H      -2.787579     -0.427148     -1.693063
  H      -2.727308     -2.363012     -0.152485
  H      -0.871326      1.129163     -1.808404
  H       1.243618     -1.284570      1.039162
  H      -0.714099     -2.771397      1.235493
  C       1.445734      1.032849     -0.372001
  N       1.435673      1.839771      0.887595
  H       0.746311      2.584336      0.808448
  H       2.334755      2.295900      1.019049
  H       1.387615      1.691461     -1.239236
  H       2.396936      0.502613     -0.403939
  Cu      0.871308      0.687532      2.402235
18
Coordinates from ORCA-job orca_MEP E -1967.195733284133
  C      -1.917136     -0.601216     -1.077553
  C      -0.835951      0.274192     -1.145006
  C       0.294394      0.060578     -0.363092
  C       0.329084     -1.050572      0.490544
  C      -0.759411     -1.912936      0.576404
  C      -1.885546     -1.687774     -0.210908
  H      -2.785094     -0.431577     -1.701977
  H      -2.728201     -2.364996     -0.157985
  H      -0.870218      1.126750     -1.812527
  H       1.236667     -1.280081      1.046497
  H      -0.719610     -2.768459      1.238154
  C       1.443164      1.033461     -0.371314
  N       1.438649      1.838424      0.889488
  H       0.741763      2.576769      0.818041
  H       2.334934      2.302861      1.011368
  H       1.382081      1.694061     -1.236868
  H       2.394253      0.503307     -0.407885
  Cu      0.906178      0.687208      2.414619
18
Coordinates from ORCA-job orca_MEP E -1967.195646402769
  C      -1.916797     -0.603572     -1.082924
  C      -0.836197      0.272809     -1.147682
  C       0.291751      0.061357     -0.361659
  C       0.324370     -1.048554      0.493042
  C      -0.763453     -1.911569      0.576953
  C      -1.887067     -1.688876     -0.214575
  H      -2.782570     -0.435856     -1.710859
  H      -2.729274     -2.366788     -0.163415
  H      -0.868973      1.124334     -1.816599
  H       1.229729     -1.275915      1.053542
  H      -0.725259     -2.765650      1.240697
  C       1.440622      1.033973     -0.370494
  N       1.441462      1.837060      0.891431
  H       0.736810      2.568817      0.827654
  H       2.334464      2.310224      1.003546
  H       1.376684      1.696483     -1.234425
  H       2.391640      0.503935     -0.411548
  Cu      0.942058      0.687788      2.427314
18
Coordinates from ORCA-job orca_MEP E -1967.195581734069
  C      -1.916355     -0.605872     -1.088325
  C      -0.836351      0.271387     -1.150359
  C       0.289193      0.062012     -0.360184
  C       0.319751     -1.046665      0.495579
  C      -0.767570     -1.910140      0.577582
  C      -1.888673     -1.689781     -0.218203
  H      -2.779855     -0.440073     -1.719891
  H      -2.730493     -2.368334     -0.168761
  H      -0.867470      1.121885     -1.820671
  H       1.222982     -1.272217      1.060324
  H      -0.731211     -2.762761      1.243343
  C       1.438078      1.034399     -0.369640
  N       1.444100      1.835680      0.893393
  H       0.731382      2.560345      0.837527
  H       2.333394      2.318100      0.995578
  H       1.371252      1.698854     -1.231896
  H       2.389074      0.504625     -0.415120
  Cu      0.978771      0.688557      2.439723
18
Coordinates from ORCA-job orca_MEP E -1967.195474499859
  C      -1.915761     -0.608087     -1.093745
  C      -0.836343      0.269959     -1.152978
  C       0.286689      0.062644     -0.358610
  C       0.315236     -1.044776      0.498405
  C      -0.771848     -1.908501      0.578487
  C      -1.890303     -1.690457     -0.221693
  H      -2.776835     -0.444248     -1.729072
  H      -2.731748     -2.369590     -0.174010
  H      -0.865610      1.119382     -1.824734
  H       1.216547     -1.268941      1.067052
  H      -0.737509     -2.759647      1.246260
  C       1.435572      1.034846     -0.368801
  N       1.446619      1.834318      0.895288
  H       0.725474      2.551251      0.847780
  H       2.331686      2.326539      0.987507
  H       1.365692      1.701251     -1.229332
  H       2.386599      0.505471     -0.418766
  Cu      1.015843      0.688585      2.450963
18
Coordinates from ORCA-job orca_MEP E -1967.195403145694
  C      -1.915075     -0.610202     -1.099068
  C      -0.836114      0.268555     -1.155564
  C       0.284386      0.063258     -0.356976
  C       0.310808     -1.042749      0.501509
  C      -0.776110     -1.906675      0.579628
  C      -1.891884     -1.690967     -0.224995
  H      -2.773705     -0.448278     -1.738213
  H      -2.733015     -2.370626     -0.179118
  H      -0.863493      1.116866     -1.828810
  H       1.210229     -1.265724      1.073880
  H      -0.743981     -2.756333      1.249403
  C       1.433182      1.035361     -0.367983
  N       1.448949      1.832919      0.897192
  H       0.719192      2.541678      0.858196
  H       2.329310      2.335344      0.979522
  H       1.360199      1.703608     -1.226850
  H       2.384234      0.506430     -0.422385
  Cu      1.052889      0.687534      2.460632
18
Coordinates from ORCA-job orca_MEP E -1967.195273614428
  C      -1.914353     -0.612217     -1.104251
  C      -0.835858      0.267160     -1.158168
  C       0.282141      0.063865     -0.355441
  C       0.306417     -1.040676      0.504593
  C      -0.780315     -1.904851      0.580751
  C      -1.893427     -1.691413     -0.228246
  H      -2.770634     -0.452088     -1.746978
  H      -2.734259     -2.371587     -0.184086
  H      -0.861331      1.114365     -1.832862
  H       1.203843     -1.262200      1.080949
  H      -0.750337     -2.753062      1.252485
  C       1.430915      1.035821     -0.367151
  N       1.451026      1.831560      0.899018
  H       0.712813      2.531984      0.868463
  H       2.326401      2.344169      0.971854
  H       1.355058      1.705816     -1.224432
  H       2.382014      0.507333     -0.425690
  Cu      1.089886      0.686019      2.469190
18
Coordinates from ORCA-job orca_MEP E -1967.195162556565
  C      -1.913712     -0.614188     -1.109318
  C      -0.835613      0.265760     -1.160794
  C       0.279931      0.064401     -0.354034
  C       0.301973     -1.038680      0.507474
  C      -0.784443     -1.903229      0.581637
  C      -1.894957     -1.691954     -0.231561
  H      -2.767795     -0.455692     -1.755383
  H      -2.735531     -2.372592     -0.189022
  H      -0.859276      1.111907     -1.836891
  H       1.197151     -1.258253      1.088194
  H      -0.756490     -2.750030      1.255247
  C       1.428730      1.036176     -0.366228
  N       1.452857      1.830223      0.900871
  H       0.706540      2.522385      0.878457
  H       2.323098      2.352813      0.964495
  H       1.350350      1.707808     -1.222024
  H       2.379818      0.508067     -0.428544
  Cu      1.127371      0.685080      2.477424
18
Coordinates from ORCA-job orca_MEP E -1967.195053221861
  C      -1.913160     -0.616176     -1.114412
  C      -0.835415      0.264329     -1.163465
  C       0.277618      0.064868     -0.352733
  C       0.297406     -1.036859      0.510086
  C      -0.788606     -1.901838      0.582250
  C      -1.896531     -1.692644     -0.234996
  H      -2.765072     -0.459218     -1.763636
  H      -2.736875     -2.373666     -0.194032
  H      -0.857313      1.109468     -1.840906
  H       1.190094     -1.254045      1.095549
  H      -0.762554     -2.747242      1.257697
  C       1.426536      1.036408     -0.365187
  N       1.454536      1.828902      0.902771
  H       0.700417      2.512806      0.888379
  H       2.319491      2.361312      0.957301
  H       1.345881      1.709651     -1.219526
  H       2.377604      0.508646     -0.431071
  Cu      1.165942      0.685298      2.485932
18
Coordinates from ORCA-job orca_MEP E -1967.194947923648
  C      -1.912581     -0.618240     -1.119593
  C      -0.835289      0.262838     -1.166241
  C       0.275274      0.065252     -0.351438
  C       0.292696     -1.035158      0.512552
  C      -0.792836     -1.900572      0.582687
  C      -1.898217     -1.693376     -0.238606
  H      -2.762373     -0.462766     -1.771996
  H      -2.738324     -2.374779     -0.199154
  H      -0.855330      1.106949     -1.845002
  H       1.182687     -1.249747      1.102973
  H      -0.768711     -2.744563      1.259982
  C       1.424257      1.036553     -0.364077
  N       1.456203      1.827475      0.904779
  H       0.694329      2.502921      0.898591
  H       2.315579      2.369853      0.950083
  H       1.341401      1.711495     -1.216885
  H       2.375316      0.509154     -0.433544
  Cu      1.205919      0.686711      2.494887
18
Coordinates from ORCA-job orca_MEP E -1967.194877359004
  C      -1.911998     -0.620376     -1.124994
  C      -0.835087      0.261285     -1.169039
  C       0.272829      0.065625     -0.350106
  C       0.287871     -1.033487      0.515069
  C      -0.797256     -1.899302      0.583089
  C      -1.899980     -1.694153     -0.242267
  H      -2.759500     -0.466524     -1.780757
  H      -2.739885     -2.375894     -0.204428
  H      -0.853265      1.104327     -1.849195
  H       1.175091     -1.245595      1.110264
  H      -0.775181     -2.741809      1.262319
  C       1.421877      1.036698     -0.362869
  N       1.458031      1.825899      0.906978
  H       0.688304      2.492435      0.909409
  H       2.311334      2.378618      0.942656
  H       1.336663      1.713444     -1.214044
  H       2.372874      0.509664     -0.436216
  Cu      1.247278      0.689145      2.504130
18
Coordinates from ORCA-job orca_MEP E -1967.194756623444
  C      -1.911373     -0.622608     -1.130583
  C      -0.834934      0.259680     -1.171860
  C       0.270235      0.065957     -0.348600
  C       0.282914     -1.031969      0.517598
  C      -0.801936     -1.898041      0.583492
  C      -1.901869     -1.694936     -0.246095
  H      -2.756414     -0.470443     -1.789847
  H      -2.741562     -2.377041     -0.209913
  H      -0.851085      1.101598     -1.853432
  H       1.167344     -1.241743      1.117374
  H      -0.781973     -2.739059      1.264639
  C       1.419424      1.036773     -0.361549
  N       1.460086      1.824240      0.909283
  H       0.682324      2.481331      0.920884
  H       2.306774      2.387757      0.934986
  H       1.331656      1.715478     -1.210927
  H       2.370367      0.510137     -0.439060
  Cu      1.290021      0.692889      2.513609
18
Coordinates from ORCA-job orca_MEP E -1967.194689594774
  C      -1.910728     -0.624920     -1.136340
  C      -0.834754      0.258031     -1.174595
  C       0.267602      0.066205     -0.346896
  C       0.277670     -1.030570      0.520298
  C      -0.806867     -1.896937      0.583790
  C      -1.903922     -1.695821     -0.250116
  H      -2.753189     -0.474463     -1.799337
  H      -2.743390     -2.378324     -0.215811
  H      -0.848801      1.098842     -1.857623
  H       1.159240     -1.238267      1.124425
  H      -0.789178     -2.736466      1.266857
  C       1.416917      1.036774     -0.359984
  N       1.462380      1.822579      0.911785
  H       0.676402      2.469658      0.932976
  H       2.301794      2.397391      0.926978
  H       1.326398      1.717452     -1.207527
  H       2.367712      0.510568     -0.441940
  Cu      1.334713      0.698268      2.523061
18
Coordinates from ORCA-job orca_MEP E -1967.194542933760
  C      -1.909976     -0.627309     -1.142335
  C      -0.834503      0.256326     -1.177308
  C       0.264799      0.066483     -0.344905
  C       0.272044     -1.029047      0.523454
  C      -0.812172     -1.895763      0.584205
  C      -1.906061     -1.696780     -0.254375
  H      -2.749636     -0.478638     -1.809243
  H      -2.745204     -2.379771     -0.222186
  H      -0.846301      1.095979     -1.861819
  H       1.150642     -1.234750      1.132155
  H      -0.796842     -2.733815      1.269162
  C       1.414319      1.036789     -0.358296
  N       1.464881      1.820952      0.914350
  H       0.670445      2.457227      0.945934
  H       2.296290      2.407629      0.918687
  H       1.320788      1.719494     -1.203916
  H       2.364976      0.511076     -0.444995
  Cu      1.381510      0.703919      2.531430
18
Coordinates from ORCA-job orca_MEP E -1967.194460508848
  C      -1.908972     -0.629813     -1.148485
  C      -0.834106      0.254531     -1.180091
  C       0.261990      0.066969     -0.342676
  C       0.266187     -1.026919      0.527427
  C      -0.817682     -1.894174      0.585032
  C      -1.908068     -1.697680     -0.258684
  H      -2.745671     -0.482983     -1.819457
  H      -2.746776     -2.381321     -0.228830
  H      -0.843450      1.092930     -1.866175
  H       1.141453     -1.230538      1.141369
  H      -0.804877     -2.730721      1.271926
  C       1.411685      1.037067     -0.356731
  N       1.467648      1.819270      0.916849
  H       0.664487      2.443810      0.959950
  H       2.290247      2.418335      0.910356
  H       1.314701      1.721862     -1.200301
  H       2.362209      0.511920     -0.448649
  Cu      1.428994      0.707455      2.537171
18
Coordinates from ORCA-job orca_MEP E -1967.194337735040
  C      -1.907778     -0.632329     -1.154621
  C      -0.833424      0.252678     -1.182845
  C       0.259322      0.067521     -0.340309
  C       0.260213     -1.024476      0.531887
  C      -0.823200     -1.892436      0.586087
  C      -1.909928     -1.698615     -0.262993
  H      -2.741544     -0.487294     -1.829677
  H      -2.748199     -2.382929     -0.235571
  H      -0.840349      1.089779     -1.870541
  H       1.131614     -1.225796      1.151895
  H      -0.813075     -2.727415      1.274903
  C       1.409077      1.037563     -0.355308
  N       1.470600      1.817624      0.919261
  H       0.658700      2.429847      0.974556
  H       2.283805      2.429322      0.902195
  H       1.308327      1.724414     -1.196781
  H       2.359463      0.513134     -0.452698
  Cu      1.476376      0.709409      2.540561
18
Coordinates from ORCA-job orca_MEP E -1967.194231078463
  C      -1.906530     -0.634858     -1.160793
  C      -0.832661      0.250753     -1.185482
  C       0.256705      0.067941     -0.337815
  C       0.254080     -1.022306      0.536377
  C      -0.828871     -1.890924      0.586943
  C      -1.911852     -1.699686     -0.267451
  H      -2.737324     -0.491461     -1.839885
  H      -2.749737     -2.384572     -0.242523
  H      -0.837100      1.086658     -1.874706
  H       1.121095     -1.221115      1.163030
  H      -0.821476     -2.724367      1.277685
  C       1.406465      1.038058     -0.353723
  N       1.473472      1.816298      0.921636
  H       0.653055      2.415788      0.989339
  H       2.276815      2.440599      0.894103
  H       1.301953      1.726774     -1.193223
  H       2.356734      0.514457     -0.456461
  Cu      1.525176      0.711963      2.542949
18
Coordinates from ORCA-job orca_MEP E -1967.194082016010
  C      -1.905188     -0.637454     -1.167180
  C      -0.831747      0.248724     -1.188223
  C       0.253967      0.068298     -0.335188
  C       0.247683     -1.020129      0.541050
  C      -0.834816     -1.889445      0.587862
  C      -1.913874     -1.700761     -0.272059
  H      -2.732842     -0.495723     -1.850414
  H      -2.751403     -2.386148     -0.249676
  H      -0.833556      1.083352     -1.879007
  H       1.110225     -1.215947      1.174615
  H      -0.830348     -2.721253      1.280565
  C       1.403744      1.038546     -0.351982
  N       1.476219      1.815066      0.924123
  H       0.647286      2.401111      1.004782
  H       2.268947      2.452338      0.886013
  H       1.295465      1.729074     -1.189508
  H       2.353922      0.515830     -0.460054
  Cu      1.576315      0.714520      2.544281
18
Coordinates from ORCA-job orca_MEP E -1967.193912689099
  C      -1.903603     -0.640242     -1.173849
  C      -0.830711      0.246551     -1.191307
  C       0.251126      0.068808     -0.332612
  C       0.241072     -1.017455      0.546117
  C      -0.841005     -1.887426      0.589305
  C      -1.915861     -1.701628     -0.276538
  H      -2.727876     -0.500498     -1.861556
  H      -2.753016     -2.387551     -0.256742
  H      -0.829617      1.079664     -1.883906
  H       1.099632     -1.209655      1.186206
  H      -0.839803     -2.717379      1.284255
  C       1.400848      1.039204     -0.350275
  N       1.478929      1.813477      0.926890
  H       0.641531      2.385254      1.021326
  H       2.260133      2.464197      0.878298
  H       1.288607      1.731752     -1.185593
  H       2.350899      0.517427     -0.464087
  Cu      1.628714      0.715502      2.544067
18
Coordinates from ORCA-job orca_MEP E -1967.193774903288
  C      -1.901821     -0.643252     -1.180772
  C      -0.829613      0.244232     -1.194750
  C       0.248189      0.069470     -0.330176
  C       0.234289     -1.014296      0.551431
  C      -0.847374     -1.884868      0.591181
  C      -1.917835     -1.702308     -0.280874
  H      -2.722551     -0.505787     -1.873190
  H      -2.754531     -2.388912     -0.263697
  H      -0.825401      1.075605     -1.889414
  H       1.089225     -1.202691      1.197515
  H      -0.849669     -2.712728      1.288698
  C       1.397769      1.040037     -0.348638
  N       1.481541      1.811370      0.930001
  H       0.636058      2.368491      1.038721
  H       2.250596      2.475677      0.871267
  H       1.281395      1.734936     -1.181427
  H       2.347658      0.519256     -0.468630
  Cu      1.682076      0.715768      2.542755
18
Coordinates from ORCA-job orca_MEP E -1967.193589940456
  C      -1.899959     -0.646436     -1.187898
  C      -0.828437      0.241803     -1.198396
  C       0.245134      0.070294     -0.327793
  C       0.227261     -1.010654      0.557007
  C      -0.853901     -1.882006      0.593237
  C      -1.919749     -1.703060     -0.285253
  H      -2.717052     -0.511387     -1.885085
  H      -2.755843     -2.390483     -0.270802
  H      -0.821066      1.071282     -1.895289
  H       1.078235     -1.195389      1.209269
  H      -0.859705     -2.707626      1.293416
  C       1.394509      1.041041     -0.347075
  N       1.484064      1.808871      0.933419
  H       0.631053      2.351306      1.056628
  H       2.240624      2.486577      0.864930
  H       1.273939      1.738527     -1.177066
  H       2.344140      0.521252     -0.473497
  Cu      1.736752      0.716089      2.540247
18
Coordinates from ORCA-job orca_MEP E -1967.193398456724
  C      -1.898024     -0.649799     -1.195126
  C      -0.827300      0.239306     -1.202123
  C       0.241890      0.071333     -0.325284
  C       0.219806     -1.006515      0.562987
  C      -0.860518     -1.879062      0.595231
  C      -1.921534     -1.704074     -0.289884
  H      -2.711482     -0.517170     -1.897035
  H      -2.756824     -2.392527     -0.278305
  H      -0.816771      1.066847     -1.901241
  H       1.065898     -1.187532      1.222332
  H      -0.869652     -2.702452      1.298004
  C       1.391096      1.042201     -0.345463
  N       1.486722      1.806258      0.936951
  H       0.626787      2.333999      1.074891
  H       2.230589      2.497015      0.859185
  H       1.266352      1.742364     -1.172538
  H       2.340336      0.523287     -0.478501
  Cu      1.792630      0.716521      2.535921
18
Coordinates from ORCA-job orca_MEP E -1967.193207285535
  C      -1.896078     -0.653311     -1.202454
  C      -0.826232      0.236780     -1.205777
  C       0.238418      0.072471     -0.322573
  C       0.211815     -1.002263      0.569134
  C      -0.867324     -1.876381      0.596948
  C      -1.923331     -1.705453     -0.294882
  H      -2.705903     -0.523048     -1.908996
  H      -2.757674     -2.395028     -0.286271
  H      -0.812635      1.062446     -1.907045
  H       1.052122     -1.179264      1.236470
  H      -0.879520     -2.697638      1.302162
  C       1.387618      1.043328     -0.343566
  N       1.489767      1.803772      0.940611
  H       0.623363      2.316622      1.093471
  H       2.220537      2.507394      0.853718
  H       1.258780      1.746180     -1.167683
  H       2.336332      0.525181     -0.483346
  Cu      1.849946      0.718212      2.530078
18
Coordinates from ORCA-job orca_MEP E -1967.193032485459
  C      -1.894168     -0.656970     -1.210054
  C      -0.825229      0.234166     -1.209429
  C       0.234720      0.073469     -0.319694
  C       0.203386     -0.998376      0.575134
  C      -0.874565     -1.874007      0.598305
  C      -1.925386     -1.707035     -0.300239
  H      -2.700158     -0.529096     -1.921368
  H      -2.758871     -2.397700     -0.294685
  H      -0.808526      1.058008     -1.912785
  H       1.037523     -1.171300      1.250529
  H      -0.889891     -2.693136      1.306005
  C       1.384082      1.044224     -0.341197
  N       1.493361      1.801242      0.944601
  H       0.620645      2.298295      1.113027
  H       2.209846      2.518229      0.848008
  H       1.251058      1.749928     -1.162186
  H       2.332117      0.526796     -0.488155
  Cu      1.910056      0.723264      2.524183
18
Coordinates from ORCA-job orca_MEP E -1967.192885902751
  C      -1.892071     -0.660861     -1.218165
  C      -0.824123      0.231376     -1.213134
  C       0.230717      0.074442     -0.316468
  C       0.194453     -0.994527      0.581496
  C      -0.882476     -1.871555      0.599794
  C      -1.927733     -1.708687     -0.305940
  H      -2.693822     -0.535625     -1.934740
  H      -2.760288     -2.400405     -0.303720
  H      -0.804064      1.053258     -1.918721
  H       1.022723     -1.163104      1.264680
  H      -0.901452     -2.688385      1.310042
  C       1.380368      1.044997     -0.338587
  N       1.497940      1.798331      0.948927
  H       0.618813      2.277552      1.134847
  H       2.197948      2.530004      0.841733
  H       1.242533      1.753987     -1.155880
  H       2.327469      0.528314     -0.493819
  Cu      1.973066      0.730887      2.517653
18
Coordinates from ORCA-job orca_MEP E -1967.192698325391
  C      -1.889566     -0.665176     -1.226799
  C      -0.822822      0.228365     -1.216985
  C       0.226373      0.075722     -0.312720
  C       0.184774     -0.989848      0.588972
  C      -0.890971     -1.868561      0.601804
  C      -1.929956     -1.710487     -0.311931
  H      -2.686614     -0.542909     -1.949158
  H      -2.761353     -2.403596     -0.313572
  H      -0.799064      1.048025     -1.925041
  H       1.006853     -1.153376      1.280391
  H      -0.914083     -2.683021      1.314746
  C       1.376290      1.046136     -0.335929
  N       1.503490      1.795146      0.953364
  H       0.618250      2.254628      1.159035
  H       2.185118      2.542389      0.835561
  H       1.232866      1.758747     -1.149105
  H       2.322252      0.530235     -0.500767
  Cu      2.038164      0.737582      2.508133
18
Coordinates from ORCA-job orca_MEP E -1967.192467073968
  C      -1.886574     -0.670009     -1.235879
  C      -0.821299      0.225089     -1.221171
  C       0.221669      0.077559     -0.308694
  C       0.174159     -0.983771      0.597707
  C      -0.899788     -1.864875      0.604487
  C      -1.931760     -1.712523     -0.318087
  H      -2.678609     -0.551067     -1.964260
  H      -2.761610     -2.407500     -0.323961
  H      -0.793555      1.042202     -1.932000
  H       0.989070     -1.141432      1.298489
  H      -0.927109     -2.676748      1.320249
  C       1.371785      1.047985     -0.333396
  N       1.509049      1.791759      0.958011
  H       0.618657      2.231042      1.184495
  H       2.171846      2.554253      0.830862
  H       1.222485      1.764347     -1.142138
  H       2.316420      0.532956     -0.508325
  Cu      2.105165      0.740733      2.493612
18
Coordinates from ORCA-job orca_MEP E -1967.192224348530
  C      -1.882920     -0.675461     -1.245255
  C      -0.819389      0.221508     -1.226005
  C       0.216867      0.080145     -0.304838
  C       0.163208     -0.975951      0.607372
  C      -0.908491     -1.859969      0.608177
  C      -1.932895     -1.714543     -0.323884
  H      -2.669772     -0.560510     -1.979943
  H      -2.760821     -2.411705     -0.333875
  H      -0.787584      1.035666     -1.940048
  H       0.970393     -1.126491      1.318535
  H      -0.940143     -2.668764      1.327287
  C       1.366752      1.050845     -0.331220
  N       1.514310      1.787808      0.962971
  H       0.619927      2.206969      1.210796
  H       2.158566      2.564799      0.828549
  H       1.211392      1.771367     -1.135006
  H       2.309971      0.536867     -0.516834
  Cu      2.170627      0.737421      2.473221
18
Coordinates from ORCA-job orca_MEP E -1967.191977899510
  C      -1.878716     -0.681546     -1.255122
  C      -0.817335      0.217629     -1.231500
  C       0.211855      0.083267     -0.301329
  C       0.152267     -0.966909      0.617316
  C      -0.917237     -1.853836      0.612773
  C      -1.933689     -1.716306     -0.329188
  H      -2.659945     -0.571519     -1.996542
  H      -2.759533     -2.415936     -0.343097
  H      -0.781274      1.028324     -1.949229
  H       0.952059     -1.110005      1.338314
  H      -0.953727     -2.658824      1.335965
  C       1.361233      1.054492     -0.329296
  N       1.519996      1.782971      0.968357
  H       0.622675      2.181285      1.238672
  H       2.145198      2.574300      0.827915
  H       1.199197      1.779963     -1.127162
  H       2.302728      0.541730     -0.526953
  Cu      2.234250      0.730921      2.450106
18
Coordinates from ORCA-job orca_MEP E -1967.191694875222
  C      -1.874515     -0.687875     -1.265241
  C      -0.815463      0.213719     -1.236781
  C       0.206283      0.086477     -0.297309
  C       0.140250     -0.957922      0.627484
  C      -0.926695     -1.848111      0.616943
  C      -1.934676     -1.718617     -0.335149
  H      -2.649873     -0.582733     -2.013517
  H      -2.758133     -2.420967     -0.353416
  H      -0.775058      1.021017     -1.958085
  H       0.931721     -1.093754      1.358654
  H      -0.967846     -2.649427      1.343959
  C       1.355481      1.057935     -0.326857
  N       1.526509      1.778114      0.973981
  H       0.627297      2.155073      1.267414
  H       2.131733      2.583717      0.827270
  H       1.186795      1.788461     -1.118545
  H       2.294794      0.546156     -0.536965
  Cu      2.301396      0.728735      2.426160
18
Coordinates from ORCA-job orca_MEP E -1967.191418718810
  C      -1.870147     -0.694542     -1.275732
  C      -0.813656      0.209713     -1.241946
  C       0.200123      0.089884     -0.292800
  C       0.126936     -0.948555      0.638261
  C      -0.936773     -1.842655      0.620773
  C      -1.935606     -1.721580     -0.341862
  H      -2.639415     -0.594266     -2.030923
  H      -2.756338     -2.426934     -0.364913
  H      -0.768859      1.013688     -1.966747
  H       0.908431     -1.076131      1.380987
  H      -0.982434     -2.640464      1.351426
  C       1.349407      1.061310     -0.323993
  N       1.533919      1.773132      0.979753
  H       0.633887      2.127745      1.297294
  H       2.117920      2.593140      0.827071
  H       1.174150      1.797108     -1.109214
  H       2.286130      0.550271     -0.547103
  Cu      2.372326      0.729136      2.399668
18
Coordinates from ORCA-job orca_MEP E -1967.191161180220
  C      -1.865024     -0.702234     -1.287154
  C      -0.811690      0.205317     -1.248034
  C       0.193324      0.094057     -0.288383
  C       0.112506     -0.937355      0.649917
  C      -0.947424     -1.835899      0.625477
  C      -1.936120     -1.724671     -0.348671
  H      -2.627596     -0.607874     -2.049898
  H      -2.753683     -2.433615     -0.376608
  H      -0.762194      1.005288     -1.976849
  H       0.883263     -1.055025      1.405008
  H      -0.998107     -2.629474      1.360475
  C       1.342583      1.065600     -0.321228
  N       1.542379      1.766862      0.986090
  H       0.642757      2.096969      1.329979
  H       2.103229      2.601983      0.829046
  H       1.160136      1.807727     -1.098695
  H       2.276053      0.555336     -0.559203
  Cu      2.445609      0.727011      2.368732
18
Coordinates from ORCA-job orca_MEP E -1967.190884266834
  C      -1.858670     -0.711465     -1.300023
  C      -0.809357      0.200255     -1.255664
  C       0.185424      0.099594     -0.284224
  C       0.096613     -0.923224      0.662643
  C      -0.959175     -1.826629      0.631991
  C      -1.936211     -1.727616     -0.355138
  H      -2.613270     -0.625109     -2.071632
  H      -2.749912     -2.440915     -0.388071
  H      -0.754438      0.995032     -1.989641
  H       0.857106     -1.029386      1.429413
  H      -1.015800     -2.614594      1.372659
  C       1.334457      1.071352     -0.318336
  N       1.551461      1.758711      0.993711
  H       0.653828      2.060907      1.367030
  H       2.086424      2.610197      0.834717
  H       1.144512      1.821140     -1.086497
  H       2.264003      0.561875     -0.573194
  Cu      2.523004      0.719875      2.330255
18
Coordinates from ORCA-job orca_MEP E -1967.190482299560
  C      -1.850471     -0.722488     -1.314354
  C      -0.806261      0.194456     -1.264573
  C       0.175998      0.107313     -0.279435
  C       0.078375     -0.905031      0.677712
  C      -0.972228     -1.814574      0.640632
  C      -1.935260     -1.730749     -0.361434
  H      -2.595407     -0.646187     -2.096237
  H      -2.743792     -2.449566     -0.400113
  H      -0.744820      0.982929     -2.004827
  H       0.827612     -0.996723      1.457106
  H      -1.035603     -2.595641      1.388056
  C       1.324907      1.079007     -0.314884
  N       1.560407      1.749476      1.002816
  H       0.666684      2.019188      1.408836
  H       2.066353      2.618699      0.845125
  H       1.128047      1.837078     -1.072931
  H       2.249756      0.569691     -0.587601
  Cu      2.605705      0.703122      2.276105
18
Coordinates from ORCA-job orca_MEP E -1967.189881329929
  C      -1.839931     -0.734610     -1.329956
  C      -0.801855      0.188290     -1.273633
  C       0.165077      0.116734     -0.272420
  C       0.056724     -0.883660      0.696142
  C      -0.987353     -1.800483      0.650766
  C      -1.933319     -1.734197     -0.368651
  H      -2.573055     -0.669834     -2.123712
  H      -2.735543     -2.459767     -0.414206
  H      -0.732409      0.969754     -2.020319
  H       0.790440     -0.960039      1.491583
  H      -1.058421     -2.573998      1.405237
  C       1.314405      1.087958     -0.310083
  N       1.569316      1.740896      1.012824
  H       0.681893      1.969559      1.456105
  H       2.039261      2.630670      0.859757
  H       1.112247      1.853838     -1.058830
  H       2.233579      0.577148     -0.600151
  Cu      2.698945      0.681739      2.199547
18
Coordinates from ORCA-job orca_MEP E -1967.188894968048
  C      -1.827665     -0.745413     -1.345571
  C      -0.795758      0.182993     -1.280155
  C       0.152659      0.126764     -0.260807
  C       0.031517     -0.862897      0.717726
  C      -1.005874     -1.786550      0.660960
  C      -1.931618     -1.737314     -0.377474
  H      -2.546281     -0.691861     -2.152835
  H      -2.726879     -2.469752     -0.432107
  H      -0.715750      0.957906     -2.032456
  H       0.746219     -0.925740      1.530994
  H      -1.085514     -2.553572      1.421046
  C       1.304336      1.094834     -0.300832
  N       1.574748      1.737669      1.024584
  H       0.696119      1.912798      1.508159
  H       1.995253      2.652493      0.876633
  H       1.105442      1.863616     -1.047321
  H       2.217279      0.576775     -0.599474
  Cu      2.811767      0.667251      2.088929
18
Coordinates from ORCA-job orca_MEP E -1967.186900571121
  C      -1.815628     -0.749255     -1.356405
  C      -0.787830      0.182133     -1.280214
  C       0.142185      0.135434     -0.244608
  C       0.009751     -0.847869      0.739957
  C      -1.022951     -1.775717      0.669936
  C      -1.929999     -1.736788     -0.385363
  H      -2.520264     -0.702025     -2.175778
  H      -2.718617     -2.475009     -0.451440
  H      -0.695264      0.953514     -2.034583
  H       0.708926     -0.901769      1.567854
  H      -1.111601     -2.539721      1.431782
  C       1.300034      1.094005     -0.286782
  N       1.568211      1.745619      1.037013
  H       0.698729      1.855931      1.555670
  H       1.923445      2.688038      0.892215
  H       1.123215      1.854007     -1.046936
  H       2.208125      0.557815     -0.571257
  Cu      2.919534      0.661657      1.938939
18
Coordinates from ORCA-job orca_MEP E -1967.183432395424
  C      -1.807207     -0.744461     -1.359365
  C      -0.780836      0.187379     -1.273794
  C       0.137497      0.140188     -0.229410
  C      -0.001849     -0.842609      0.755258
  C      -1.031953     -1.771771      0.674763
  C      -1.928308     -1.732976     -0.390293
  H      -2.504197     -0.696217     -2.185266
  H      -2.713893     -2.472902     -0.465524
  H      -0.676548      0.958219     -2.027222
  H       0.691877     -0.895647      1.588256
  H      -1.126540     -2.537309      1.434522
  C       1.303774      1.084194     -0.267969
  N       1.547804      1.765112      1.049175
  H       0.682455      1.824535      1.583477
  H       1.841181      2.727775      0.899482
  H       1.167133      1.823984     -1.054512
  H       2.208246      0.520732     -0.515247
  Cu      2.991367      0.661774      1.783670
18
Coordinates from ORCA-job orca_MEP E -1967.179233415879
  C      -1.801248     -0.737167     -1.357459
  C      -0.773730      0.193099     -1.265076
  C       0.137203      0.140427     -0.216395
  C      -0.008592     -0.842837      0.767229
  C      -1.038679     -1.771073      0.678742
  C      -1.928184     -1.728040     -0.391601
  H      -2.489435     -0.690418     -2.190326
  H      -2.710895     -2.469877     -0.476721
  H      -0.661027      0.963729     -2.017676
  H       0.683035     -0.898797      1.601445
  H      -1.134081     -2.543260      1.431725
  C       1.308415      1.073914     -0.246724
  N       1.525681      1.788568      1.059079
  H       0.662071      1.818431      1.598297
  H       1.784421      2.759648      0.900528
  H       1.211935      1.796110     -1.051617
  H       2.210252      0.488132     -0.465350
  Cu      3.022858      0.659410      1.641901
18
Coordinates from ORCA-job orca_MEP E -1967.175437250492
  C      -1.797033     -0.732448     -1.354174
  C      -0.766164      0.195951     -1.257252
  C       0.143056      0.138526     -0.210084
  C      -0.007229     -0.845593      0.774249
  C      -1.040390     -1.772797      0.681013
  C      -1.929095     -1.722083     -0.387711
  H      -2.480502     -0.683940     -2.189861
  H      -2.707936     -2.468033     -0.482887
  H      -0.652168      0.968139     -2.007625
  H       0.677384     -0.906378      1.613488
  H      -1.137366     -2.548968      1.431265
  C       1.313298      1.073902     -0.235543
  N       1.503501      1.811402      1.061318
  H       0.642331      1.814779      1.607785
  H       1.754858      2.783945      0.897903
  H       1.245475      1.778161     -1.058930
  H       2.217683      0.478489     -0.437955
  Cu      3.020298      0.636946      1.555000
18
Coordinates from ORCA-job orca_MEP E -1967.171268971737
  C      -1.789778     -0.729034     -1.352208
  C      -0.761920      0.199953     -1.253005
  C       0.148151      0.138123     -0.203026
  C      -0.009294     -0.844464      0.780393
  C      -1.037623     -1.773324      0.683415
  C      -1.923915     -1.722500     -0.391383
  H      -2.476151     -0.676359     -2.187691
  H      -2.705435     -2.464390     -0.484292
  H      -0.643560      0.971171     -2.003081
  H       0.674675     -0.907716      1.622214
  H      -1.138221     -2.549298      1.432603
  C       1.319459      1.071682     -0.219838
  N       1.482008      1.831322      1.072027
  H       0.621336      1.826315      1.619338
  H       1.713851      2.808265      0.904299
  H       1.282999      1.755507     -1.062510
  H       2.225087      0.458951     -0.416080
  Cu      3.018331      0.605794      1.458827
18
Coordinates from ORCA-job orca_MEP E -1967.160932102913
  C      -1.779966     -0.723935     -1.349787
  C      -0.752845      0.206808     -1.244896
  C       0.150572      0.138519     -0.189556
  C      -0.016872     -0.839126      0.795397
  C      -1.041788     -1.770214      0.688925
  C      -1.914513     -1.723988     -0.396785
  H      -2.461002     -0.673857     -2.189281
  H      -2.700915     -2.461726     -0.490011
  H      -0.629500      0.973076     -1.999613
  H       0.670122     -0.903618      1.634674
  H      -1.139936     -2.550530      1.431883
  C       1.330942      1.061421     -0.185576
  N       1.451207      1.862363      1.094178
  H       0.590195      1.856778      1.643118
  H       1.652788      2.844574      0.919962
  H       1.341752      1.727471     -1.039935
  H       2.243542      0.407746     -0.401522
  Cu      3.006217      0.568236      1.278824
18
Coordinates from ORCA-job orca_MEP E -1967.144560638956
  C      -1.775566     -0.716813     -1.346848
  C      -0.743300      0.208078     -1.237648
  C       0.153205      0.142033     -0.179344
  C      -0.017130     -0.843042      0.803608
  C      -1.043188     -1.769914      0.691089
  C      -1.915765     -1.719671     -0.390665
  H      -2.451903     -0.669383     -2.187247
  H      -2.696577     -2.460074     -0.494485
  H      -0.623221      0.978253     -1.990962
  H       0.667201     -0.907114      1.642906
  H      -1.139935     -2.557549      1.430394
  C       1.328934      1.070166     -0.149550
  N       1.396437      1.906157      1.095917
  H       0.561698      1.862635      1.675990
  H       1.633217      2.878123      0.924436
  H       1.389087      1.709283     -1.022076
  H       2.332359      0.338142     -0.396145
  Cu      2.944448      0.550691      1.130628
18
Coordinates from ORCA-job orca_MEP E -1967.132999096322
  C      -1.771685     -0.718736     -1.346445
  C      -0.740783      0.209633     -1.238478
  C       0.150035      0.146604     -0.169306
  C      -0.020211     -0.840003      0.806541
  C      -1.042211     -1.772402      0.692511
  C      -1.914899     -1.717798     -0.392052
  H      -2.449829     -0.669137     -2.187972
  H      -2.696048     -2.460132     -0.495344
  H      -0.622255      0.978649     -1.991164
  H       0.663743     -0.904848      1.646686
  H      -1.140559     -2.558585      1.430843
  C       1.306966      1.093867     -0.122307
  N       1.358819      1.930890      1.093530
  H       0.549936      1.869960      1.704113
  H       1.629177      2.894878      0.934666
  H       1.406407      1.701582     -1.011501
  H       2.410842      0.272870     -0.419782
  Cu      2.922554      0.542709      1.065462
18
Coordinates from ORCA-job orca_MEP E -1967.126451293817
  C      -1.770208     -0.719210     -1.347413
  C      -0.740271      0.209809     -1.237469
  C       0.146803      0.150095     -0.164014
  C      -0.022480     -0.838608      0.809801
  C      -1.041793     -1.772275      0.692156
  C      -1.914266     -1.718249     -0.392407
  H      -2.449161     -0.669587     -2.188577
  H      -2.696037     -2.459776     -0.495557
  H      -0.621924      0.978476     -1.991061
  H       0.663140     -0.904640      1.648002
  H      -1.140253     -2.558472      1.430172
  C       1.283455      1.114788     -0.104213
  N       1.337178      1.943878      1.091107
  H       0.544973      1.875718      1.720024
  H       1.628867      2.901816      0.940864
  H       1.414228      1.699134     -1.004299
  H       2.472044      0.224202     -0.441184
  Cu      2.905706      0.542902      1.034070
18
Coordinates from ORCA-job orca_MEP E -1967.122542810713
  C      -1.769539     -0.719434     -1.347899
  C      -0.740109      0.210048     -1.237225
  C       0.143727      0.152680     -0.159949
  C      -0.024233     -0.837700      0.811996
  C      -1.041763     -1.772493      0.692088
  C      -1.914005     -1.718276     -0.392694
  H      -2.448862     -0.669744     -2.188980
  H      -2.695978     -2.459630     -0.495640
  H      -0.621825      0.978580     -1.990821
  H       0.662540     -0.904595      1.648955
  H      -1.139922     -2.558766      1.429622
  C       1.262332      1.132555     -0.090568
  N       1.320198      1.953911      1.088847
  H       0.542265      1.879572      1.732701
  H       1.628869      2.906857      0.945672
  H       1.420412      1.697420     -0.998350
  H       2.524772      0.183359     -0.457891
  Cu      2.891117      0.545656      1.010136
18
Coordinates from ORCA-job orca_MEP E -1967.120357152966
  C      -1.768956     -0.719609     -1.348293
  C      -0.740070      0.210221     -1.237263
  C       0.140610      0.155284     -0.156457
  C      -0.025808     -0.836916      0.813829
  C      -1.041649     -1.772949      0.692158
  C      -1.913776     -1.718238     -0.392785
  H      -2.448402     -0.669883     -2.189290
  H      -2.695898     -2.459515     -0.495738
  H      -0.621846      0.978850     -1.990673
  H       0.661576     -0.904361      1.650005
  H      -1.139682     -2.559422      1.429338
  C       1.242262      1.148941     -0.079470
  N       1.305096      1.962904      1.086744
  H       0.540662      1.882648      1.744426
  H       1.629336      2.911355      0.950587
  H       1.425338      1.696580     -0.993017
  H       2.574985      0.145231     -0.471216
  Cu      2.876223      0.548877      0.987113
18
Coordinates from ORCA-job orca_MEP E -1967.119734337613
  C      -1.768504     -0.719915     -1.348786
  C      -0.740318      0.210288     -1.237327
  C       0.137101      0.158078     -0.153031
  C      -0.027519     -0.835914      0.815763
  C      -1.041518     -1.773324      0.692124
  C      -1.913632     -1.718213     -0.392875
  H      -2.448057     -0.670121     -2.189678
  H      -2.695832     -2.459434     -0.495861
  H      -0.622012      0.979095     -1.990497
  H       0.660422     -0.903993      1.651139
  H      -1.139373     -2.560103      1.428918
  C       1.221755      1.165164     -0.069560
  N       1.290207      1.971889      1.084963
  H       0.539653      1.885544      1.756544
  H       1.630032      2.915518      0.955712
  H       1.429766      1.696050     -0.987697
  H       2.627031      0.106664     -0.483029
  Cu      2.860798      0.552728      0.963179
18
Coordinates from ORCA-job orca_MEP E -1967.120076283865
  C      -1.768336     -0.720386     -1.349395
  C      -0.741004      0.210317     -1.237543
  C       0.133232      0.160858     -0.150116
  C      -0.029481     -0.834623      0.817609
  C      -1.041542     -1.773584      0.692075
  C      -1.913614     -1.718308     -0.393012
  H      -2.447864     -0.670663     -2.190281
  H      -2.695779     -2.459530     -0.496028
  H      -0.622438      0.979241     -1.990519
  H       0.658903     -0.903183      1.652373
  H      -1.139078     -2.560741      1.428420
  C       1.203640      1.178641     -0.062248
  N       1.277816      1.979381      1.083996
  H       0.539617      1.888049      1.767853
  H       1.630712      2.918970      0.960816
  H       1.432718      1.696293     -0.982983
  H       2.675338      0.072150     -0.491608
  Cu      2.847159      0.557118      0.940593
18
Coordinates from ORCA-job orca_MEP E -1967.121213935647
  C      -1.768369     -0.720997     -1.350164
  C      -0.742072      0.210297     -1.237917
  C       0.128752      0.163948     -0.147272
  C      -0.031778     -0.833068      0.819555
  C      -1.041659     -1.773809      0.692020
  C      -1.913679     -1.718453     -0.393186
  H      -2.447731     -0.671466     -2.191098
  H      -2.695730     -2.459772     -0.496249
  H      -0.623065      0.979355     -1.990632
  H       0.657003     -0.902001      1.653773
  H      -1.138768     -2.561418      1.427849
  C       1.185820      1.191472     -0.056034
  N       1.266228      1.986498      1.083684
  H       0.540065      1.890521      1.779514
  H       1.631338      2.922300      0.966214
  H       1.434734      1.697121     -0.978323
  H       2.725160      0.037430     -0.498655
  Cu      2.833752      0.562042      0.916923
18
Coordinates from ORCA-job orca_MEP E -1967.122797585239
  C      -1.768614     -0.721847     -1.351127
  C      -0.743658      0.210274     -1.238446
  C       0.123453      0.167367     -0.144503
  C      -0.034562     -0.831102      0.821618
  C      -1.041984     -1.773931      0.691949
  C      -1.913832     -1.718703     -0.393450
  H      -2.447672     -0.672642     -2.192183
  H      -2.695671     -2.460206     -0.496535
  H      -0.623995      0.979391     -1.990904
  H       0.654569     -0.900253      1.655401
  H      -1.138459     -2.562092      1.427160
  C       1.168107      1.203703     -0.050797
  N       1.255588      1.993107      1.084123
  H       0.541329      1.892934      1.791592
  H       1.631792      2.925370      0.972093
  H       1.435485      1.698866     -0.973805
  H       2.777468      0.002012     -0.504058
  Cu      2.820656      0.567752      0.891872
18
Coordinates from ORCA-job orca_MEP E -1967.124541164273
  C      -1.769268     -0.722899     -1.352356
  C      -0.745876      0.210162     -1.239251
  C       0.117241      0.171243     -0.141809
  C      -0.038040     -0.828576      0.823874
  C      -1.042617     -1.773829      0.691918
  C      -1.914133     -1.719141     -0.393900
  H      -2.447766     -0.674405     -2.193708
  H      -2.695572     -2.460969     -0.496955
  H      -0.625427      0.979308     -1.991494
  H       0.651312     -0.897619      1.657362
  H      -1.138220     -2.562716      1.426413
  C       1.150114      1.215613     -0.046566
  N       1.246261      1.998826      1.085313
  H       0.543730      1.894946      1.804293
  H       1.632187      2.928119      0.978519
  H       1.434253      1.701843     -0.969474
  H       2.833432     -0.034213     -0.507396
  Cu      2.808388      0.574307      0.865216
18
Coordinates from ORCA-job orca_MEP E -1967.126508874047
  C      -1.770354     -0.724364     -1.354005
  C      -0.748942      0.210155     -1.240304
  C       0.110041      0.175646     -0.139282
  C      -0.042668     -0.825083      0.826501
  C      -1.043841     -1.773398      0.691981
  C      -1.914621     -1.719870     -0.394660
  H      -2.448073     -0.677008     -2.195872
  H      -2.695403     -2.462306     -0.497557
  H      -0.627409      0.978976     -1.992691
  H       0.646679     -0.893564      1.660032
  H      -1.138209     -2.563120      1.425722
  C       1.132149      1.227062     -0.043353
  N       1.238800      2.003118      1.087352
  H       0.548005      1.895771      1.817657
  H       1.632718      2.930029      0.985497
  H       1.429514      1.706832     -0.965679
  H       2.894217     -0.070600     -0.508253
  Cu      2.797396      0.581722      0.836914
18
Coordinates from ORCA-job orca_MEP E -1967.128408189672
  C      -1.772210     -0.726100     -1.355881
  C      -0.753008      0.210109     -1.241711
  C       0.101681      0.180503     -0.136983
  C      -0.048341     -0.820790      0.829312
  C      -1.045493     -1.772703      0.692122
  C      -1.915497     -1.720735     -0.395458
  H      -2.449088     -0.680089     -2.198377
  H      -2.695233     -2.464250     -0.498456
  H      -0.630405      0.978556     -1.994131
  H       0.640378     -0.888054      1.663438
  H      -1.138276     -2.563573      1.424784
  C       1.113901      1.238097     -0.041502
  N       1.233655      2.005490      1.089888
  H       0.553981      1.895135      1.830828
  H       1.633324      2.930939      0.992530
  H       1.421457      1.713700     -0.963081
  H       2.960806     -0.105716     -0.505721
  Cu      2.788368      0.589482      0.808399
18
Coordinates from ORCA-job orca_MEP E -1967.130237808437
  C      -1.775786     -0.727345     -1.357463
  C      -0.758809      0.210511     -1.243092
  C       0.092583      0.185438     -0.135481
  C      -0.054496     -0.816610      0.831410
  C      -1.047372     -1.772218      0.691664
  C      -1.917199     -1.721776     -0.396318
  H      -2.452188     -0.682963     -2.200297
  H      -2.695755     -2.466475     -0.499124
  H      -0.635829      0.978887     -1.995413
  H       0.633782     -0.882360      1.665994
  H      -1.137478     -2.564870      1.422760
  C       1.095882      1.248263     -0.041015
  N       1.229894      2.006740      1.091591
  H       0.560853      1.893827      1.842679
  H       1.633867      2.931342      0.998158
  H       1.411547      1.721036     -0.961701
  H       3.035005     -0.139270     -0.495807
  Cu      2.781498      0.597843      0.781455
18
Coordinates from ORCA-job orca_MEP E -1967.131965860252
  C      -1.781075     -0.728609     -1.359067
  C      -0.766358      0.211110     -1.244876
  C       0.082937      0.190053     -0.135047
  C      -0.061146     -0.812717      0.832403
  C      -1.049970     -1.771894      0.690662
  C      -1.920047     -1.722927     -0.397378
  H      -2.457294     -0.686116     -2.202082
  H      -2.697280     -2.468989     -0.499722
  H      -0.643991      0.979635     -1.997083
  H       0.627325     -0.876673      1.666933
  H      -1.136987     -2.566389      1.420102
  C       1.078628      1.257013     -0.041949
  N       1.228878      2.006115      1.092429
  H       0.571540      1.889944      1.854122
  H       1.634289      2.930980      1.001776
  H       1.398701      1.729174     -0.961827
  H       3.113201     -0.169332     -0.476457
  Cu      2.778650      0.609623      0.757060
18
Coordinates from ORCA-job orca_MEP E -1967.133625401394
  C      -1.786009     -0.731555     -1.362322
  C      -0.774030      0.210675     -1.248146
  C       0.072277      0.195000     -0.135139
  C      -0.070204     -0.807060      0.834178
  C      -1.054678     -1.770130      0.690688
  C      -1.923439     -1.724593     -0.398959
  H      -2.460973     -0.692476     -2.206513
  H      -2.698654     -2.472832     -0.501266
  H      -0.652195      0.978509     -2.001117
  H       0.617541     -0.867229      1.669558
  H      -1.139787     -2.565329      1.419560
  C       1.060866      1.265408     -0.043489
  N       1.233026      2.001470      1.094712
  H       0.590913      1.878769      1.868911
  H       1.635827      2.928125      1.006431
  H       1.378859      1.741457     -0.962462
  H       3.189864     -0.193286     -0.455064
  Cu      2.780797      0.625078      0.730440
18
Coordinates from ORCA-job orca_MEP E -1967.135114647725
  C      -1.788081     -0.737364     -1.368155
  C      -0.779961      0.208339     -1.253294
  C       0.060440      0.201122     -0.134795
  C      -0.083013     -0.797887      0.838653
  C      -1.062179     -1.765432      0.693027
  C      -1.925987     -1.726899     -0.401200
  H      -2.459344     -0.704328     -2.215542
  H      -2.697969     -2.478384     -0.504183
  H      -0.657084      0.973733     -2.008522
  H       0.601534     -0.850892      1.677009
  H      -1.147365     -2.559256      1.423340
  C       1.041770      1.274578     -0.044051
  N       1.242054      1.992279      1.099851
  H       0.619630      1.858318      1.888614
  H       1.639573      2.922051      1.015639
  H       1.350967      1.759835     -0.961491
  H       3.258235     -0.209646     -0.442787
  Cu      2.786776      0.639833      0.697885
18
Coordinates from ORCA-job orca_MEP E -1967.136419384556
  C      -1.786442     -0.745433     -1.375972
  C      -0.782995      0.204575     -1.259427
  C       0.048629      0.208107     -0.133591
  C      -0.098224     -0.785612      0.845682
  C      -1.071426     -1.758157      0.697732
  C      -1.927028     -1.729611     -0.403729
  H      -2.451661     -0.720667     -2.228358
  H      -2.694919     -2.485094     -0.508046
  H      -0.657303      0.965899     -2.018313
  H       0.580652     -0.829380      1.689109
  H      -1.158852     -2.548690      1.431272
  C       1.022715      1.284425     -0.042948
  N       1.253403      1.980601      1.107250
  H       0.653445      1.831433      1.910849
  H       1.644989      2.913566      1.029276
  H       1.319173      1.782197     -0.958114
  H       3.311838     -0.218266     -0.444848
  Cu      2.794003      0.650106      0.662176
18
Coordinates from ORCA-job orca_MEP E -1967.137462233072
  C      -1.781955     -0.754358     -1.384189
  C      -0.783498      0.200217     -1.265446
  C       0.038220      0.215109     -0.131721
  C      -0.113450     -0.772453      0.853819
  C      -1.080988     -1.749760      0.703581
  C      -1.926739     -1.732261     -0.406133
  H      -2.439958     -0.738516     -2.242403
  H      -2.690363     -2.491830     -0.512080
  H      -0.653802      0.956771     -2.028454
  H       0.558084     -0.806695      1.703463
  H      -1.172142     -2.535876      1.441358
  C       1.005767      1.293875     -0.040498
  N       1.264598      1.968562      1.115178
  H       0.686983      1.802831      1.932023
  H       1.651045      2.904368      1.044725
  H       1.288499      1.804794     -0.952800
  H       3.349453     -0.220656     -0.458634
  Cu      2.800244      0.655878      0.628211
18
Coordinates from ORCA-job orca_MEP E -1967.138256428722
  C      -1.775912     -0.763131     -1.391988
  C      -0.782235      0.195791     -1.270775
  C       0.029460      0.221526     -0.129447
  C      -0.127593     -0.759858      0.862017
  C      -1.090046     -1.741389      0.709665
  C      -1.925563     -1.734697     -0.408272
  H      -2.426407     -0.755910     -2.255992
  H      -2.685192     -2.498025     -0.515882
  H      -0.648158      0.947568     -2.037736
  H       0.535860     -0.785094      1.718256
  H      -1.185691     -2.522686      1.451933
  C       0.991432      1.302350     -0.037242
  N       1.274749      1.957311      1.122904
  H       0.717194      1.775803      1.950487
  H       1.657255      2.895315      1.060145
  H       1.261318      1.825589     -0.946488
  H       3.374375     -0.218811     -0.479472
  Cu      2.805153      0.658347      0.597888
18
Coordinates from ORCA-job orca_MEP E -1967.138859983447
  C      -1.769391     -0.771078     -1.398832
  C      -0.780074      0.191738     -1.275157
  C       0.022402      0.226961     -0.127128
  C      -0.139989     -0.748764      0.869551
  C      -1.098135     -1.733787      0.715321
  C      -1.923983     -1.736862     -0.410095
  H      -2.412798     -0.771619     -2.268161
  H      -2.680194     -2.503380     -0.519234
  H      -0.641753      0.939144     -2.045599
  H       0.515517     -0.765901      1.732051
  H      -1.198425     -2.510398      1.461848
  C       0.979764      1.309500     -0.033729
  N       1.283531      1.947378      1.129896
  H       0.742991      1.752062      1.965717
  H       1.663018      2.887088      1.074226
  H       1.238472      1.843579     -0.939933
  H       3.390227     -0.214854     -0.502555
  Cu      2.808819      0.659193      0.571814
18
Coordinates from ORCA-job orca_MEP E -1967.139336916100
  C      -1.762785     -0.778418     -1.404874
  C      -0.777419      0.188046     -1.278816
  C       0.016386      0.231642     -0.124790
  C      -0.151058     -0.738841      0.876460
  C      -1.105519     -1.726944      0.720531
  C      -1.922220     -1.738777     -0.411706
  H      -2.399472     -0.785965     -2.279160
  H      -2.675496     -2.508095     -0.522200
  H      -0.635114      0.931442     -2.052374
  H       0.496823     -0.748707      1.744750
  H      -1.210384     -2.499012      1.471038
  C       0.970038      1.315752     -0.029976
  N       1.291238      1.938404      1.136215
  H       0.765452      1.731123      1.978631
  H       1.668434      2.879570      1.087129
  H       1.218837      1.859434     -0.933326
  H       3.400660     -0.209943     -0.526224
  Cu      2.811598      0.659287      0.548690
18
Coordinates from ORCA-job orca_MEP E -1967.139725334532
  C      -1.756276     -0.785137     -1.410306
  C      -0.774621      0.184607     -1.281928
  C       0.011215      0.235844     -0.122428
  C      -0.161112     -0.730042      0.882776
  C      -1.112311     -1.720724      0.725302
  C      -1.920502     -1.740551     -0.413108
  H      -2.386582     -0.799128     -2.289129
  H      -2.671157     -2.512233     -0.524859
  H      -0.628492      0.924397     -2.058227
  H       0.479664     -0.733464      1.756374
  H      -1.221642     -2.488529      1.479498
  C       0.961672      1.321160     -0.026298
  N       1.298220      1.930451      1.142037
  H       0.785383      1.712584      1.989805
  H       1.673498      2.872656      1.098853
  H       1.201608      1.873536     -0.926784
  H       3.407685     -0.204612     -0.549420
  Cu      2.813751      0.659185      0.527844
18
Coordinates from ORCA-job orca_MEP E -1967.140060157075
  C      -1.749896     -0.791407     -1.415234
  C      -0.771716      0.181377     -1.284551
  C       0.006610      0.239628     -0.120011
  C      -0.170426     -0.722111      0.888674
  C      -1.118783     -1.715017      0.729719
  C      -1.918867     -1.742193     -0.414379
  H      -2.374012     -0.811395     -2.298359
  H      -2.667192     -2.515941     -0.527328
  H      -0.621868      0.917845     -2.063339
  H       0.463644     -0.719970      1.767122
  H      -1.232458     -2.478765      1.487334
  C       0.954201      1.326012     -0.022593
  N       1.304696      1.923266      1.147413
  H       0.803694      1.695885      1.999760
  H       1.678221      2.866381      1.109542
  H       1.185999      1.886310     -0.920317
  H       3.412624     -0.199139     -0.571938
  Cu      2.815530      0.659235      0.508485
18
Coordinates from ORCA-job orca_MEP E -1967.140346167747
  C      -1.743588     -0.797246     -1.419880
  C      -0.768794      0.178308     -1.286748
  C       0.002493      0.243066     -0.117487
  C      -0.179294     -0.714944      0.894270
  C      -1.125032     -1.709670      0.733874
  C      -1.917358     -1.743797     -0.415567
  H      -2.361670     -0.822968     -2.307007
  H      -2.663574     -2.519305     -0.529680
  H      -0.615224      0.911620     -2.067821
  H       0.448464     -0.707903      1.777188
  H      -1.243035     -2.469626      1.494665
  C       0.947236      1.330385     -0.019030
  N       1.310903      1.916854      1.152496
  H       0.821056      1.680520      2.008861
  H       1.682640      2.860651      1.119306
  H       1.171459      1.898061     -0.913898
  H       3.416230     -0.193540     -0.593691
  Cu      2.817088      0.659536      0.490149
18
Coordinates from ORCA-job orca_MEP E -1967.140578762664
  C      -1.737412     -0.802898     -1.424129
  C      -0.765818      0.175377     -1.288649
  C      -0.001498      0.246164     -0.114880
  C      -0.187733     -0.708318      0.899653
  C      -1.131144     -1.704767      0.737740
  C      -1.915981     -1.745256     -0.416691
  H      -2.349544     -0.833922     -2.315203
  H      -2.660261     -2.522422     -0.532001
  H      -0.608585      0.905733     -2.071781
  H       0.434002     -0.696976      1.786720
  H      -1.253443     -2.461005      1.501512
  C       0.940896      1.334465     -0.015290
  N       1.316817      1.910839      1.157055
  H       0.837863      1.666218      2.017262
  H       1.686809      2.855469      1.128235
  H       1.157680      1.909010     -0.907613
  H       3.418983     -0.187922     -0.614697
  Cu      2.818367      0.660208      0.472757
18
Coordinates from ORCA-job orca_MEP E -1967.140891675703
  C      -1.731321     -0.808312     -1.428158
  C      -0.762797      0.172533     -1.290247
  C      -0.005309      0.249104     -0.112184
  C      -0.195850     -0.702142      0.904773
  C      -1.137154     -1.700162      0.741430
  C      -1.914730     -1.746644     -0.417763
  H      -2.337591     -0.844414     -2.323041
  H      -2.657199     -2.525364     -0.534307
  H      -0.601997      0.900109     -2.075279
  H       0.420072     -0.686853      1.795781
  H      -1.263734     -2.452856      1.507982
  C       0.934812      1.338296     -0.011552
  N       1.322691      1.905170      1.161216
  H       0.854432      1.652585      2.025081
  H       1.690734      2.850710      1.136453
  H       1.144363      1.919342     -0.901404
  H       3.421185     -0.182356     -0.634888
  Cu      2.819393      0.661255      0.456106
18
Coordinates from ORCA-job orca_MEP E -1967.141039615655
  C      -1.725317     -0.813539     -1.432000
  C      -0.759818      0.169783     -1.291643
  C      -0.009016      0.251872     -0.109417
  C      -0.203897     -0.696245      0.909826
  C      -1.143160     -1.695708      0.745000
  C      -1.913490     -1.748067     -0.418860
  H      -2.325666     -0.854675     -2.330645
  H      -2.654291     -2.528198     -0.536600
  H      -0.595430      0.894634     -2.078451
  H       0.406453     -0.677194      1.804472
  H      -1.273989     -2.445015      1.514151
  C       0.928951      1.341954     -0.007797
  N       1.328551      1.899823      1.165201
  H       0.871040      1.639329      2.032366
  H       1.694519      2.846159      1.144217
  H       1.131310      1.929256     -0.895170
  H       3.423005     -0.176754     -0.654467
  Cu      2.820247      0.662584      0.439818
18
Coordinates from ORCA-job orca_MEP E -1967.141278114307
  C      -1.719395     -0.818671     -1.435641
  C      -0.756978      0.167105     -1.292900
  C      -0.012621      0.254553     -0.106628
  C      -0.211776     -0.690644      0.914738
  C      -1.149132     -1.691486      0.748381
  C      -1.912345     -1.749428     -0.419982
  H      -2.313902     -0.864611     -2.337936
  H      -2.651496     -2.530897     -0.538865
  H      -0.588971      0.889393     -2.081329
  H       0.393240     -0.667950      1.812816
  H      -1.284103     -2.437505      1.520034
  C       0.923305      1.345510     -0.004040
  N       1.334398      1.894565      1.168764
  H       0.887612      1.626338      2.039218
  H       1.698204      2.841939      1.151465
  H       1.118467      1.938805     -0.889007
  H       3.424591     -0.171198     -0.673121
  Cu      2.820904      0.664181      0.424033
18
Coordinates from ORCA-job orca_MEP E -1967.141478128555
  C      -1.713570     -0.823690     -1.439155
  C      -0.754093      0.164598     -1.293942
  C      -0.016314      0.256984     -0.103860
  C      -0.219572     -0.685135      0.919483
  C      -1.155060     -1.687438      0.751684
  C      -1.911212     -1.750762     -0.421042
  H      -2.302249     -0.874335     -2.345015
  H      -2.648836     -2.533585     -0.541139
  H      -0.582645      0.884306     -2.083969
  H       0.380271     -0.659031      1.820881
  H      -1.294161     -2.430196      1.525645
  C       0.917750      1.348940     -0.000266
  N       1.340340      1.889462      1.172130
  H       0.904334      1.613484      2.045580
  H       1.701708      2.837863      1.158377
  H       1.105785      1.948148     -0.882920
  H       3.426150     -0.165791     -0.691018
  Cu      2.821375      0.666176      0.408547
18
Coordinates from ORCA-job orca_MEP E -1967.141672169245
  C      -1.707769     -0.828611     -1.442582
  C      -0.751331      0.162099     -1.294901
  C      -0.019921      0.259489     -0.101059
  C      -0.227366     -0.679836      0.924183
  C      -1.160992     -1.683443      0.754881
  C      -1.910147     -1.752123     -0.422066
  H      -2.290625     -0.883939     -2.351908
  H      -2.646185     -2.536235     -0.543423
  H      -0.576398      0.879347     -2.086402
  H       0.367389     -0.650338      1.828758
  H      -1.304252     -2.423043      1.531095
  C       0.912229      1.352246      0.003400
  N       1.346355      1.884464      1.175298
  H       0.921223      1.600656      2.051574
  H       1.705160      2.833873      1.165049
  H       1.093149      1.957301     -0.876750
  H       3.427765     -0.160451     -0.708358
  Cu      2.821716      0.668542      0.393211
18
Coordinates from ORCA-job orca_MEP E -1967.141859166298
  C      -1.702009     -0.833444     -1.445903
  C      -0.748603      0.159682     -1.295721
  C      -0.023507      0.261900     -0.098253
  C      -0.235092     -0.674665      0.928787
  C      -1.166934     -1.679549      0.758011
  C      -1.909115     -1.753485     -0.423072
  H      -2.279068     -0.893403     -2.358618
  H      -2.643596     -2.538893     -0.545712
  H      -0.570265      0.874513     -2.088644
  H       0.354558     -0.641836      1.836500
  H      -1.314368     -2.416000      1.536377
  C       0.906751      1.355446      0.007002
  N       1.352395      1.879541      1.178260
  H       0.938181      1.587854      2.057173
  H       1.708575      2.829950      1.171510
  H       1.080572      1.966324     -0.870544
  H       3.429499     -0.155145     -0.725153
  Cu      2.822026      0.671211      0.377999
18
Coordinates from ORCA-job orca_MEP E -1967.142006896704
  C      -1.696324     -0.838190     -1.449122
  C      -0.745878      0.157165     -1.296551
  C      -0.027106      0.264429     -0.095362
  C      -0.242781     -0.669714      0.933326
  C      -1.172823     -1.675736      0.761037
  C      -1.908170     -1.754857     -0.424066
  H      -2.267537     -0.902750     -2.365135
  H      -2.640988     -2.541519     -0.548001
  H      -0.564236      0.869835     -2.090714
  H       0.341688     -0.633385      1.844235
  H      -1.324579     -2.409038      1.541577
  C       0.901399      1.358549      0.010509
  N       1.358409      1.874704      1.181113
  H       0.955185      1.574907      2.062406
  H       1.711935      2.826013      1.177805
  H       1.067992      1.975279     -0.864325
  H       3.431465     -0.149887     -0.741537
  Cu      2.822350      0.674194      0.362807
18
Coordinates from ORCA-job orca_MEP E -1967.142239747948
  C      -1.690656     -0.842936     -1.452169
  C      -0.743404      0.154917     -1.297168
  C      -0.030445      0.266500     -0.092670
  C      -0.250362     -0.664800      0.937788
  C      -1.178827     -1.671918      0.764032
  C      -1.907065     -1.756271     -0.425104
  H      -2.256124     -0.911887     -2.371382
  H      -2.638404     -2.544071     -0.550233
  H      -0.558316      0.865255     -2.092602
  H       0.328750     -0.624911      1.851888
  H      -1.334709     -2.402140      1.546557
  C       0.895915      1.361742      0.014164
  N       1.364358      1.869759      1.183585
  H       0.972063      1.561912      2.067008
  H       1.715196      2.822092      1.184068
  H       1.055630      1.984014     -0.858011
  H       3.433626     -0.144628     -0.757426
  Cu      2.822774      0.677371      0.347676
18
Coordinates from ORCA-job orca_MEP E -1967.142371498177
  C      -1.685033     -0.847585     -1.455156
  C      -0.740816      0.152655     -1.297715
  C      -0.033862      0.268780     -0.089903
  C      -0.257849     -0.659850      0.942229
  C      -1.184567     -1.668229      0.766955
  C      -1.906043     -1.757634     -0.426018
  H      -2.244889     -0.920903     -2.377517
  H      -2.635846     -2.546717     -0.552473
  H      -0.552542      0.860841     -2.094362
  H       0.315690     -0.616327      1.859551
  H      -1.344918     -2.395362      1.551515
  C       0.890758      1.364755      0.017677
  N       1.370029      1.864838      1.185965
  H       0.988723      1.548717      2.071200
  H       1.718410      2.818024      1.190301
  H       1.043378      1.992661     -0.851693
  H       3.436167     -0.139476     -0.773143
  Cu      2.823210      0.680809      0.332587
18
Coordinates from ORCA-job orca_MEP E -1967.142521612316
  C      -1.679485     -0.852127     -1.458001
  C      -0.738273      0.150417     -1.298251
  C      -0.037209      0.270978     -0.087219
  C      -0.265227     -0.654997      0.946570
  C      -1.190294     -1.664563      0.769847
  C      -1.904924     -1.758987     -0.426941
  H      -2.233806     -0.929734     -2.383388
  H      -2.633222     -2.549326     -0.554625
  H      -0.546933      0.856545     -2.095946
  H       0.302528     -0.607547      1.867200
  H      -1.355042     -2.388610      1.556357
  C       0.885553      1.367804      0.021179
  N       1.375611      1.859840      1.188147
  H       1.005095      1.535217      2.074908
  H       1.721525      2.813922      1.196524
  H       1.031302      2.001199     -0.845411
  H       3.439022     -0.134313     -0.788428
  Cu      2.823779      0.684281      0.317478
18
Coordinates from ORCA-job orca_MEP E -1967.142692716329
  C      -1.673980     -0.856665     -1.460739
  C      -0.735822      0.148230     -1.298741
  C      -0.040588      0.273085     -0.084596
  C      -0.272651     -0.650131      0.950901
  C      -1.196016     -1.660905      0.772679
  C      -1.903761     -1.760378     -0.427832
  H      -2.222766     -0.938455     -2.389011
  H      -2.630489     -2.551910     -0.556717
  H      -0.541402      0.852379     -2.097478
  H       0.289216     -0.598513      1.874924
  H      -1.365126     -2.381813      1.561096
  C       0.880296      1.370833      0.024637
  N       1.381077      1.854761      1.190189
  H       1.021316      1.521401      2.078148
  H       1.724570      2.809693      1.202845
  H       1.019364      2.009699     -0.839054
  H       3.442331     -0.129167     -0.803550
  Cu      2.824429      0.687857      0.302299
18
Coordinates from ORCA-job orca_MEP E -1967.142826022763
  C      -1.668476     -0.861176     -1.463398
  C      -0.733396      0.146070     -1.299209
  C      -0.044035      0.275251     -0.081981
  C      -0.280107     -0.645189      0.955210
  C      -1.201718     -1.657243      0.775506
  C      -1.902550     -1.761772     -0.428678
  H      -2.211790     -0.947142     -2.394504
  H      -2.627678     -2.554570     -0.558780
  H      -0.535961      0.848261     -2.098928
  H       0.275608     -0.589242      1.882674
  H      -1.375264     -2.375003      1.565803
  C       0.875058      1.373827      0.028098
  N       1.386415      1.849593      1.192115
  H       1.037552      1.507288      2.081013
  H       1.727603      2.805280      1.209228
  H       1.007469      2.018197     -0.832587
  H       3.446179     -0.123948     -0.818600
  Cu      2.825091      0.691517      0.287018
18
Coordinates from ORCA-job orca_MEP E -1967.142938810591
  C      -1.662988     -0.865701     -1.465979
  C      -0.731019      0.143946     -1.299627
  C      -0.047539      0.277404     -0.079384
  C      -0.287651     -0.640163      0.959514
  C      -1.207471     -1.653567      0.778319
  C      -1.901291     -1.763207     -0.429508
  H      -2.200841     -0.955812     -2.399872
  H      -2.624792     -2.557326     -0.560835
  H      -0.530594      0.844198     -2.100314
  H       0.261639     -0.579780      1.890468
  H      -1.385482     -2.368153      1.570471
  C       0.869790      1.376829      0.031636
  N       1.391646      1.844334      1.193883
  H       1.053919      1.492941      2.083536
  H       1.730709      2.800727      1.215606
  H       0.995577      2.026664     -0.825971
  H       3.450562     -0.118451     -0.833584
  Cu      2.825826      0.695119      0.271640
18
Coordinates from ORCA-job orca_MEP E -1967.143064865450
  C      -1.657495     -0.870217     -1.468514
  C      -0.728716      0.141847     -1.300004
  C      -0.051092      0.279589     -0.076751
  C      -0.295397     -0.635103      0.963826
  C      -1.213293     -1.649878      0.781102
  C      -1.900024     -1.764708     -0.430341
  H      -2.189893     -0.964484     -2.405101
  H      -2.621782     -2.560202     -0.562902
  H      -0.525322      0.840172     -2.101615
  H       0.247284     -0.570172      1.898341
  H      -1.395820     -2.361264      1.575106
  C       0.864428      1.379789      0.035190
  N       1.396833      1.839052      1.195489
  H       1.070557      1.478380      2.085734
  H       1.733931      2.796034      1.221930
  H       0.983675      2.035126     -0.819190
  H       3.455541     -0.112666     -0.848580
  Cu      2.826582      0.698705      0.256282
18
Coordinates from ORCA-job orca_MEP E -1967.143186356962
  C      -1.652033     -0.874720     -1.471030
  C      -0.726532      0.139722     -1.300260
  C      -0.054698      0.281879     -0.074081
  C      -0.303366     -0.630015      0.968153
  C      -1.219212     -1.646151      0.783839
  C      -1.898772     -1.766349     -0.431167
  H      -2.178920     -0.973150     -2.410194
  H      -2.618589     -2.563190     -0.565017
  H      -0.520147      0.836245     -2.102836
  H       0.232528     -0.560475      1.906289
  H      -1.406293     -2.354390      1.579708
  C       0.859016      1.382716      0.038743
  N       1.401987      1.833832      1.196994
  H       1.087502      1.463702      2.087546
  H       1.737312      2.791148      1.228121
  H       0.971754      2.043502     -0.812229
  H       3.461048     -0.106503     -0.863559
  Cu      2.827417      0.702196      0.240980
18
Coordinates from ORCA-job orca_MEP E -1967.143292771719
  C      -1.646557     -0.879249     -1.473368
  C      -0.724403      0.137768     -1.300489
  C      -0.058529      0.284068     -0.071319
  C      -0.311481     -0.624798      0.972544
  C      -1.225279     -1.642513      0.786622
  C      -1.897412     -1.767950     -0.432013
  H      -2.167953     -0.981809     -2.415248
  H      -2.615306     -2.566445     -0.567223
  H      -0.515122      0.832363     -2.103871
  H       0.217370     -0.550744      1.914255
  H      -1.416898     -2.347481      1.584177
  C       0.853576      1.385605      0.042463
  N       1.407074      1.828527      1.198225
  H       1.104720      1.448943      2.089040
  H       1.740950      2.786249      1.234139
  H       0.959834      2.051864     -0.805194
  H       3.467068     -0.099998     -0.878493
  Cu      2.828348      0.705602      0.225755
18
Coordinates from ORCA-job orca_MEP E -1967.143384824664
  C      -1.641160     -0.883734     -1.475650
  C      -0.722438      0.135862     -1.300568
  C      -0.062462      0.286323     -0.068507
  C      -0.319772     -0.619575      0.976932
  C      -1.231423     -1.638886      0.789331
  C      -1.896074     -1.769642     -0.432871
  H      -2.156991     -0.990408     -2.420133
  H      -2.611838     -2.569824     -0.569486
  H      -0.510273      0.828652     -2.104738
  H       0.202042     -0.541037      1.922183
  H      -1.427569     -2.340678      1.588561
  C       0.848123      1.388437      0.046189
  N       1.412097      1.823245      1.199276
  H       1.121997      1.434300      2.090151
  H       1.744824      2.781222      1.239897
  H       0.948004      2.060033     -0.798049
  H       3.473526     -0.093214     -0.893291
  Cu      2.829388      0.708924      0.210775
18
Coordinates from ORCA-job orca_MEP E -1967.143446268527
  C      -1.635817     -0.888191     -1.477865
  C      -0.720632      0.134052     -1.300534
  C      -0.066533      0.288640     -0.065624
  C      -0.328249     -0.614323      0.981349
  C      -1.237660     -1.635255      0.792047
  C      -1.894722     -1.771409     -0.433704
  H      -2.145989     -0.999011     -2.424921
  H      -2.608214     -2.573368     -0.571804
  H      -0.505596      0.825091     -2.105461
  H       0.186547     -0.531257      1.930029
  H      -1.438358     -2.333920      1.592864
  C       0.842599      1.391194      0.049955
  N       1.417076      1.817930      1.200222
  H       1.139282      1.419700      2.090903
  H       1.748968      2.775987      1.245439
  H       0.936244      2.068083     -0.790807
  H       3.480479     -0.086116     -0.908015
  Cu      2.830575      0.712175      0.195927
18
Coordinates from ORCA-job orca_MEP E -1967.143529360391
  C      -1.630527     -0.892620     -1.479957
  C      -0.719004      0.132359     -1.300427
  C      -0.070780      0.290973     -0.062751
  C      -0.336825     -0.609009      0.985763
  C      -1.243971     -1.631659      0.794742
  C      -1.893357     -1.773189     -0.434489
  H      -2.135035     -1.007585     -2.429574
  H      -2.604440     -2.577054     -0.574127
  H      -0.501170      0.821685     -2.106032
  H       0.171047     -0.521400      1.937701
  H      -1.449166     -2.327218      1.597065
  C       0.837093      1.393901      0.053741
  N       1.421959      1.812488      1.201007
  H       1.156270      1.405217      2.091342
  H       1.753429      2.770513      1.250795
  H       0.924710      2.075954     -0.783521
  H       3.487883     -0.078675     -0.922570
  Cu      2.831883      0.715318      0.181292
18
Coordinates from ORCA-job orca_MEP E -1967.143583010210
  C      -1.625335     -0.897020     -1.481964
  C      -0.717557      0.130746     -1.300262
  C      -0.075113      0.293428     -0.059877
  C      -0.345521     -0.603629      0.990111
  C      -1.250300     -1.628027      0.797430
  C      -1.891972     -1.775019     -0.435230
  H      -2.124133     -1.016173     -2.434068
  H      -2.600488     -2.580861     -0.576398
  H      -0.496977      0.818430     -2.106535
  H       0.155493     -0.511362      1.945217
  H      -1.459960     -2.320536      1.601236
  C       0.831585      1.396536      0.057470
  N       1.426778      1.806868      1.201763
  H       1.172861      1.390769      2.091409
  H       1.758172      2.764647      1.256067
  H       0.913490      2.083665     -0.776179
  H       3.495708     -0.070834     -0.937043
  Cu      2.833269      0.718373      0.166852
18
Coordinates from ORCA-job orca_MEP E -1967.143633479327
  C      -1.620166     -0.901356     -1.483888
  C      -0.716214      0.129217     -1.300056
  C      -0.079641      0.295975     -0.057021
  C      -0.354332     -0.598183      0.994430
  C      -1.256617     -1.624363      0.800119
  C      -1.890551     -1.776898     -0.435901
  H      -2.113306     -1.024785     -2.438405
  H      -2.596342     -2.584838     -0.578599
  H      -0.493004      0.815270     -2.107015
  H       0.139743     -0.501104      1.952607
  H      -1.470673     -2.313849      1.605344
  C       0.826220      1.399102      0.061214
  N       1.431563      1.801005      1.202395
  H       1.189018      1.376315      2.091199
  H       1.763234      2.758445      1.261326
  H       0.902683      2.091263     -0.768837
  H       3.503736     -0.062562     -0.951517
  Cu      2.834649      0.721347      0.152605
18
Coordinates from ORCA-job orca_MEP E -1967.143639464543
  C      -1.615066     -0.905749     -1.485695
  C      -0.715042      0.127794     -1.299791
  C      -0.084167      0.298555     -0.054162
  C      -0.363306     -0.592545      0.998716
  C      -1.262952     -1.620745      0.802767
  C      -1.889017     -1.778855     -0.436595
  H      -2.102465     -1.033358     -2.442588
  H      -2.591994     -2.588984     -0.580821
  H      -0.489136      0.812178     -2.107404
  H       0.123542     -0.490707      1.960036
  H      -1.481345     -2.307262      1.609375
  C       0.820894      1.401650      0.065008
  N       1.436498      1.795011      1.202954
  H       1.205042      1.361944      2.090681
  H       1.768602      2.752010      1.266503
  H       0.892250      2.098685     -0.761441
  H       3.511706     -0.053932     -0.965997
  Cu      2.835958      0.724310      0.138454
18
Coordinates from ORCA-job orca_MEP E -1967.143651591882
  C      -1.609884     -0.910052     -1.487466
  C      -0.713909      0.126436     -1.299358
  C      -0.088872      0.301238     -0.051193
  C      -0.372570     -0.586971      1.003096
  C      -1.269322     -1.617206      0.805325
  C      -1.887413     -1.780954     -0.437281
  H      -2.091536     -1.041890     -2.446669
  H      -2.587398     -2.593356     -0.583147
  H      -0.485320      0.809163     -2.107647
  H       0.106663     -0.480203      1.967608
  H      -1.492008     -2.300817      1.613258
  C       0.815628      1.404154      0.068865
  N       1.441647      1.789009      1.203408
  H       1.221318      1.347763      2.089957
  H       1.774331      2.745511      1.271425
  H       0.882005      2.105992     -0.753976
  H       3.519543     -0.045080     -0.980531
  Cu      2.837096      0.727264      0.124327
18
Coordinates from ORCA-job orca_MEP E -1967.143638012442
  C      -1.604237     -0.914353     -1.489091
  C      -0.711621      0.124491     -1.298089
  C      -0.091713      0.302159     -0.047346
  C      -0.382228     -0.584002      1.007354
  C      -1.276813     -1.615485      0.807104
  C      -1.886330     -1.783961     -0.438951
  H      -2.080339     -1.049171     -2.450692
  H      -2.583758     -2.598159     -0.587060
  H      -0.481166      0.805908     -2.107002
  H       0.086792     -0.472582      1.976042
  H      -1.504542     -2.295750      1.616486
  C       0.813983      1.404568      0.072873
  N       1.451696      1.783802      1.203655
  H       1.241324      1.339514      2.091321
  H       1.780204      2.741670      1.274098
  H       0.873425      2.111261     -0.746542
  H       3.519276     -0.035955     -0.994336
  Cu      2.836046      0.736045      0.110176
