18
Coordinates from ORCA-job orca E -1967.119828797986
  C      -1.768504     -0.719915     -1.348786
  C      -0.740318      0.210288     -1.237327
  C       0.137101      0.158078     -0.153031
  C      -0.027519     -0.835914      0.815763
  C      -1.041518     -1.773324      0.692124
  C      -1.913632     -1.718213     -0.392875
  H      -2.448057     -0.670121     -2.189678
  H      -2.695832     -2.459434     -0.495861
  H      -0.622012      0.979095     -1.990497
  H       0.660422     -0.903993      1.651139
  H      -1.139373     -2.560103      1.428918
  C       1.221755      1.165164     -0.069560
  N       1.290207      1.971889      1.084963
  H       0.539653      1.885544      1.756544
  H       1.630032      2.915518      0.955712
  H       1.429766      1.696050     -0.987697
  H       2.627031      0.106664     -0.483029
  Cu      2.860798      0.552728      0.963179
18
Coordinates from ORCA-job orca E -1967.120146979119
  C      -1.761792     -0.724150     -1.353621
  C      -0.730502      0.202882     -1.245935
  C       0.144599      0.154001     -0.159738
  C      -0.026747     -0.831375      0.816401
  C      -1.045936     -1.763824      0.698415
  C      -1.915388     -1.712787     -0.389006
  H      -2.438663     -0.677921     -2.196837
  H      -2.702060     -2.449843     -0.487120
  H      -0.604915      0.963717     -2.006054
  H       0.659579     -0.896407      1.653402
  H      -1.151989     -2.541780      1.443322
  C       1.220473      1.169351     -0.071079
  N       1.288038      1.959000      1.094920
  H       0.545048      1.851474      1.771911
  H       1.612906      2.909293      0.977011
  H       1.414645      1.716212     -0.982834
  H       2.616892      0.109911     -0.501491
  Cu      2.875813      0.562246      0.938332
18
Coordinates from ORCA-job orca E -1967.120429567841
  C      -1.753615     -0.732233     -1.361015
  C      -0.719622      0.192271     -1.256442
  C       0.146940      0.151947     -0.163747
  C      -0.032089     -0.823591      0.819819
  C      -1.055089     -1.752274      0.707229
  C      -1.918244     -1.708889     -0.385751
  H      -2.424070     -0.693258     -2.209687
  H      -2.709644     -2.441469     -0.478952
  H      -0.588101      0.946824     -2.021840
  H       0.651217     -0.879040      1.660629
  H      -1.169661     -2.520619      1.460757
  C       1.217772      1.171666     -0.070914
  N       1.290250      1.941350      1.108088
  H       0.558016      1.810381      1.792488
  H       1.599183      2.898300      1.002870
  H       1.396932      1.735317     -0.975416
  H       2.616265      0.134642     -0.534861
  Cu      2.893560      0.568673      0.906744
18
Coordinates from ORCA-job orca E -1967.120795854117
  C      -1.740478     -0.744399     -1.372330
  C      -0.707088      0.180692     -1.268797
  C       0.145637      0.154873     -0.165194
  C      -0.040643     -0.810561      0.826821
  C      -1.065158     -1.737724      0.717317
  C      -1.918578     -1.705616     -0.383985
  H      -2.403092     -0.714771     -2.227484
  H      -2.712523     -2.435765     -0.473898
  H      -0.567267      0.926168     -2.041623
  H       0.635847     -0.852943      1.673840
  H      -1.190799     -2.493978      1.481159
  C       1.211979      1.177523     -0.069799
  N       1.297997      1.920971      1.125322
  H       0.583867      1.760099      1.822243
  H       1.586212      2.885808      1.035807
  H       1.370446      1.762179     -0.964646
  H       2.597161      0.149285     -0.574280
  Cu      2.916481      0.578159      0.859527
18
Coordinates from ORCA-job orca E -1967.120987150015
  C      -1.732513     -0.753242     -1.379851
  C      -0.699211      0.172190     -1.277584
  C       0.144317      0.155684     -0.167461
  C      -0.049187     -0.799919      0.831854
  C      -1.074156     -1.726581      0.725298
  C      -1.919559     -1.703986     -0.382683
  H      -2.388226     -0.731973     -2.240546
  H      -2.715462     -2.432283     -0.470060
  H      -0.551759      0.909379     -2.056932
  H       0.625276     -0.830841      1.681632
  H      -1.207186     -2.474142      1.496381
  C       1.207744      1.180035     -0.068260
  N       1.304458      1.904544      1.138287
  H       0.603524      1.722542      1.843288
  H       1.578065      2.874568      1.060484
  H       1.352629      1.779926     -0.955062
  H       2.589260      0.170428     -0.605692
  Cu      2.931986      0.583671      0.826908
18
Coordinates from ORCA-job orca E -1967.121281959314
  C      -1.719662     -0.767429     -1.391687
  C      -0.689721      0.161909     -1.289490
  C       0.137471      0.162017     -0.168089
  C      -0.063723     -0.781921      0.839712
  C      -1.085985     -1.711213      0.735775
  C      -1.918099     -1.704173     -0.382865
  H      -2.364315     -0.760016     -2.260913
  H      -2.712743     -2.433880     -0.469666
  H      -0.535213      0.890803     -2.075286
  H       0.605455     -0.789660      1.694985
  H      -1.227981     -2.447650      1.515858
  C       1.199896      1.185227     -0.064923
  N       1.318580      1.882440      1.156653
  H       0.638619      1.672972      1.874443
  H       1.574038      2.858460      1.094713
  H       1.326569      1.806136     -0.939650
  H       2.565097      0.187509     -0.646950
  Cu      2.951716      0.588468      0.777380
18
Coordinates from ORCA-job orca E -1967.121444277734
  C      -1.712075     -0.776050     -1.398307
  C      -0.683478      0.154634     -1.295945
  C       0.135093      0.163241     -0.168435
  C      -0.073538     -0.772457      0.845834
  C      -1.095112     -1.702235      0.742413
  C      -1.918916     -1.703518     -0.382548
  H      -2.350931     -0.775396     -2.271819
  H      -2.713634     -2.433134     -0.469164
  H      -0.521255      0.875492     -2.087605
  H       0.594208     -0.772125      1.702077
  H      -1.245155     -2.430638      1.528462
  C       1.195454      1.187597     -0.062516
  N       1.326965      1.869087      1.167165
  H       0.661316      1.641622      1.892824
  H       1.568462      2.849115      1.114365
  H       1.310468      1.821330     -0.929673
  H       2.556836      0.207237     -0.674156
  Cu      2.965290      0.596197      0.747027
18
Coordinates from ORCA-job orca E -1967.121584416123
  C      -1.705909     -0.782029     -1.403156
  C      -0.678168      0.149170     -1.299517
  C       0.132256      0.165330     -0.165919
  C      -0.081489     -0.766723      0.851727
  C      -1.102729     -1.696556      0.746668
  C      -1.918684     -1.704136     -0.383947
  H      -2.337597     -0.788190     -2.281833
  H      -2.714570     -2.432461     -0.470617
  H      -0.512923      0.867702     -2.092689
  H       0.580891     -0.761090      1.711562
  H      -1.257165     -2.422076      1.534503
  C       1.191672      1.190313     -0.060253
  N       1.335824      1.862035      1.173564
  H       0.684144      1.621227      1.907511
  H       1.564526      2.845326      1.125360
  H       1.296914      1.832684     -0.922404
  H       2.545553      0.213016     -0.691570
  Cu      2.977455      0.606458      0.721009
18
Coordinates from ORCA-job orca E -1967.121718079026
  C      -1.700515     -0.787392     -1.407250
  C      -0.672968      0.143526     -1.301768
  C       0.131963      0.164149     -0.163936
  C      -0.088595     -0.763379      0.857279
  C      -1.110324     -1.692403      0.750015
  C      -1.921156     -1.703035     -0.384149
  H      -2.329779     -0.794616     -2.287648
  H      -2.716105     -2.432146     -0.472757
  H      -0.500754      0.856377     -2.098605
  H       0.570500     -0.758559      1.719134
  H      -1.272425     -2.412281      1.541475
  C       1.188995      1.191421     -0.058170
  N       1.342755      1.856047      1.178464
  H       0.704847      1.601971      1.919972
  H       1.556288      2.842877      1.133605
  H       1.284735      1.841161     -0.916018
  H       2.542127      0.225537     -0.708159
  Cu      2.990411      0.620745      0.698517
18
Coordinates from ORCA-job orca E -1967.121860229765
  C      -1.694438     -0.792736     -1.411970
  C      -0.666714      0.137392     -1.303579
  C       0.129254      0.164879     -0.159311
  C      -0.098902     -0.758615      0.864424
  C      -1.120571     -1.687263      0.753792
  C      -1.921176     -1.705179     -0.387360
  H      -2.313605     -0.807688     -2.299395
  H      -2.719724     -2.430407     -0.475452
  H      -0.490729      0.848903     -2.100830
  H       0.550473     -0.749092      1.733384
  H      -1.286047     -2.406347      1.545291
  C       1.185040      1.193208     -0.055000
  N       1.354874      1.850396      1.183617
  H       0.737770      1.579974      1.936881
  H       1.547218      2.841725      1.141459
  H       1.268689      1.851296     -0.907719
  H       2.530612      0.228834     -0.725090
  Cu      3.007976      0.640720      0.666857
18
Coordinates from ORCA-job orca E -1967.121938712759
  C      -1.689818     -0.796842     -1.415305
  C      -0.662961      0.133519     -1.303727
  C       0.128335      0.164241     -0.155771
  C      -0.105564     -0.756452      0.869826
  C      -1.126783     -1.685312      0.755400
  C      -1.923260     -1.704889     -0.388459
  H      -2.307411     -0.811064     -2.303827
  H      -2.718734     -2.433020     -0.480228
  H      -0.481429      0.841362     -2.103030
  H       0.538186     -0.749437      1.742501
  H      -1.299343     -2.399528      1.549795
  C       1.182798      1.193922     -0.052861
  N       1.362495      1.847728      1.186209
  H       0.759393      1.567049      1.947015
  H       1.539954      2.841884      1.145256
  H       1.258779      1.856443     -0.903036
  H       2.526005      0.235127     -0.736830
  Cu      3.019358      0.655269      0.647075
18
Coordinates from ORCA-job orca E -1967.121990140593
  C      -1.685249     -0.800821     -1.418721
  C      -0.659225      0.129736     -1.304527
  C       0.126976      0.164656     -0.152669
  C      -0.112422     -0.752160      0.875318
  C      -1.133585     -1.681034      0.757854
  C      -1.922861     -1.706376     -0.390701
  H      -2.296676     -0.819476     -2.311403
  H      -2.719595     -2.433099     -0.482581
  H      -0.473300      0.834717     -2.105371
  H       0.522003     -0.745034      1.754424
  H      -1.309343     -2.393494      1.553132
  C       1.179808      1.195292     -0.050632
  N       1.371215      1.843493      1.189669
  H       0.783121      1.551580      1.957979
  H       1.533862      2.840311      1.151743
  H       1.248075      1.863178     -0.897385
  H       2.517670      0.241106     -0.750830
  Cu      3.029524      0.667427      0.624702
18
Coordinates from ORCA-job orca E -1967.122060984892
  C      -1.675605     -0.809779     -1.425654
  C      -0.652439      0.122739     -1.307359
  C       0.123635      0.167327     -0.148280
  C      -0.123817     -0.742139      0.884108
  C      -1.143073     -1.673269      0.761703
  C      -1.923035     -1.707070     -0.392660
  H      -2.280005     -0.833505     -2.322975
  H      -2.714875     -2.438626     -0.488291
  H      -0.459491      0.822503     -2.111145
  H       0.496293     -0.735604      1.772930
  H      -1.329109     -2.376574      1.562811
  C       1.173983      1.198940     -0.046962
  N       1.385783      1.834249      1.196620
  H       0.821454      1.523412      1.975262
  H       1.527071      2.834610      1.167258
  H       1.230070      1.877065     -0.886605
  H       2.500835      0.253783     -0.777500
  Cu      3.042325      0.681939      0.586739
18
Coordinates from ORCA-job orca E -1967.122078977181
  C      -1.662588     -0.822832     -1.434470
  C      -0.642411      0.111724     -1.312874
  C       0.120816      0.169433     -0.145369
  C      -0.139136     -0.726817      0.894601
  C      -1.158860     -1.658307      0.769924
  C      -1.921521     -1.709666     -0.394841
  H      -2.253676     -0.858507     -2.340208
  H      -2.717133     -2.437408     -0.488063
  H      -0.436793      0.800365     -2.123131
  H       0.461791     -0.715777      1.796217
  H      -1.352122     -2.354352      1.575682
  C       1.166431      1.204003     -0.042464
  N       1.403864      1.816658      1.207662
  H       0.869464      1.477632      1.995587
  H       1.518803      2.820735      1.195883
  H       1.204818      1.899133     -0.869199
  H       2.481795      0.285703     -0.820683
  Cu      3.056459      0.698280      0.535746
18
Coordinates from ORCA-job orca E -1967.122093678211
  C      -1.662269     -0.822649     -1.434278
  C      -0.642228      0.111903     -1.312370
  C       0.119369      0.171319     -0.143770
  C      -0.139616     -0.726980      0.895057
  C      -1.157083     -1.660849      0.768675
  C      -1.921906     -1.709335     -0.394673
  H      -2.253606     -0.857649     -2.339881
  H      -2.712838     -2.441723     -0.491230
  H      -0.440025      0.804235     -2.120345
  H       0.462736     -0.717625      1.795675
  H      -1.353422     -2.354081      1.576092
  C       1.166354      1.205494     -0.042580
  N       1.404376      1.818861      1.206805
  H       0.868325      1.482240      1.994559
  H       1.523025      2.822502      1.194185
  H       1.204940      1.899778     -0.870011
  H       2.479581      0.279663     -0.818741
  Cu      3.054288      0.694895      0.536832
18
Coordinates from ORCA-job orca E -1967.122109142815
  C      -1.670169     -0.815282     -1.428906
  C      -0.649340      0.119210     -1.309774
  C       0.122967      0.169063     -0.148133
  C      -0.128175     -0.735375      0.887287
  C      -1.147858     -1.666758      0.765400
  C      -1.921437     -1.708154     -0.392739
  H      -2.270808     -0.843115     -2.328633
  H      -2.713496     -2.439562     -0.487635
  H      -0.451955      0.814375     -2.116498
  H       0.486285     -0.727307      1.779992
  H      -1.336344     -2.366365      1.569145
  C       1.171529      1.202329     -0.046431
  N       1.390873      1.826732      1.201193
  H       0.831816      1.507536      1.980269
  H       1.529802      2.827589      1.180570
  H       1.220513      1.887568     -0.880810
  H       2.493462      0.269164     -0.796068
  Cu      3.042336      0.678351      0.571770
18
Coordinates from ORCA-job orca E -1967.122097472797
  C      -1.664430     -0.820700     -1.432681
  C      -0.644170      0.113824     -1.311789
  C       0.120741      0.170597     -0.145302
  C      -0.136069     -0.729189      0.892743
  C      -1.154444     -1.662167      0.768024
  C      -1.921575     -1.709070     -0.393920
  H      -2.258304     -0.853941     -2.336694
  H      -2.713522     -2.440500     -0.489469
  H      -0.442971      0.806462     -2.119753
  H       0.469541     -0.720010      1.791262
  H      -1.347946     -2.357524      1.574282
  C       1.167919      1.204938     -0.043954
  N       1.400157      1.820670      1.205428
  H       0.856214      1.489323      1.990023
  H       1.526230      2.823358      1.191138
  H       1.208970      1.896978     -0.873125
  H       2.483986      0.279191     -0.813822
  Cu      3.049673      0.687759      0.547607
18
Coordinates from ORCA-job orca E -1967.122098782366
  C      -1.662561     -0.822483     -1.433756
  C      -0.642903      0.112509     -1.312324
  C       0.120210      0.171204     -0.144682
  C      -0.138055     -0.727220      0.894113
  C      -1.156127     -1.660620      0.768942
  C      -1.921321     -1.709434     -0.394116
  H      -2.255131     -0.856829     -2.338584
  H      -2.712961     -2.441159     -0.489927
  H      -0.440285      0.803935     -2.120978
  H       0.465180     -0.717225      1.794208
  H      -1.350679     -2.354856      1.575913
  C       1.167027      1.205978     -0.043546
  N       1.402510      1.818684      1.206704
  H       0.861319      1.484601      1.992027
  H       1.526963      2.821604      1.194716
  H       1.205354      1.900162     -0.871041
  H       2.481123      0.283354     -0.819525
  Cu      3.050337      0.687794      0.541857
18
Coordinates from ORCA-job orca E -1967.122102609526
  C      -1.657819     -0.827055     -1.436364
  C      -0.639290      0.108705     -1.313745
  C       0.118750      0.172690     -0.142895
  C      -0.143944     -0.721709      0.898086
  C      -1.160740     -1.656656      0.771468
  C      -1.920448     -1.710748     -0.394743
  H      -2.245519     -0.865722     -2.344183
  H      -2.711796     -2.442727     -0.491041
  H      -0.433480      0.797513     -2.123845
  H       0.453813     -0.709665      1.801758
  H      -1.358542     -2.347502      1.580554
  C       1.164565      1.208786     -0.042348
  N       1.408919      1.813221      1.210211
  H       0.874559      1.472429      1.997280
  H       1.530365      2.816549      1.204413
  H       1.195050      1.908745     -0.865265
  H       2.474174      0.296714     -0.836050
  Cu      3.051382      0.686431      0.526709
18
Coordinates from ORCA-job orca E -1967.122105511127
  C      -1.656174     -0.828620     -1.437268
  C      -0.638673      0.108127     -1.314038
  C       0.118064      0.173510     -0.142383
  C      -0.145240     -0.720330      0.898890
  C      -1.161832     -1.655508      0.772189
  C      -1.920066     -1.711084     -0.394874
  H      -2.243705     -0.867468     -2.345192
  H      -2.710504     -2.443963     -0.491744
  H      -0.431681      0.795756     -2.124846
  H       0.450622     -0.706296      1.803779
  H      -1.359831     -2.346048      1.581485
  C       1.163793      1.209774     -0.042037
  N       1.410606      1.811812      1.211217
  H       0.877306      1.470012      1.998557
  H       1.532692      2.815069      1.207005
  H       1.192055      1.911232     -0.863736
  H       2.471719      0.299519     -0.840183
  Cu      3.050849      0.684507      0.523181
18
Coordinates from ORCA-job orca E -1967.122107210181
  C      -1.656874     -0.827965     -1.436815
  C      -0.638792      0.108226     -1.313998
  C       0.118476      0.173094     -0.142655
  C      -0.144872     -0.720732      0.898686
  C      -1.161325     -1.656005      0.771965
  C      -1.920060     -1.711069     -0.394814
  H      -2.244040     -0.867276     -2.344958
  H      -2.711209     -2.443241     -0.491249
  H      -0.432380      0.796334     -2.124547
  H       0.452371     -0.707586      1.802656
  H      -1.359488     -2.346415      1.581331
  C       1.164086      1.209538     -0.042218
  N       1.409860      1.812193      1.210974
  H       0.875457      1.471290      1.997958
  H       1.532778      2.815345      1.206242
  H       1.192581      1.910565     -0.864282
  H       2.472950      0.299748     -0.839253
  Cu      3.050479      0.683957      0.524976
