18
Coordinates from ORCA-job orca E -1967.120560236088
  C      -1.762974     -0.719145     -1.355950
  C      -0.731206      0.205846     -1.248277
  C       0.141575      0.153543     -0.162065
  C      -0.027814     -0.828599      0.816380
  C      -1.048305     -1.757440      0.700006
  C      -1.915413     -1.708235     -0.388964
  H      -2.439607     -0.673270     -2.198510
  H      -2.697227     -2.448270     -0.489575
  H      -0.605767      0.971755     -2.004906
  H       0.663695     -0.887113      1.649407
  H      -1.155757     -2.532465      1.447809
  C       1.226624      1.154497     -0.075970
  N       1.299855      1.952955      1.090112
  H       0.582684      1.813230      1.786904
  H       1.565599      2.918403      0.952113
  H       1.409435      1.706949     -0.986653
  H       2.595405      0.068342     -0.462973
  Cu      2.899200      0.609017      0.931113
18
Coordinates from ORCA-job orca E -1967.120810484605
  C      -1.758411     -0.723579     -1.358391
  C      -0.718756      0.193564     -1.255948
  C       0.152268      0.142753     -0.167950
  C      -0.026934     -0.832077      0.816791
  C      -1.057104     -1.751909      0.706418
  C      -1.923515     -1.701575     -0.383252
  H      -2.433226     -0.678188     -2.202743
  H      -2.718024     -2.430041     -0.475243
  H      -0.582904      0.949099     -2.020329
  H       0.663801     -0.893607      1.650317
  H      -1.174221     -2.519536      1.460309
  C       1.226270      1.156057     -0.074931
  N       1.295124      1.942170      1.099007
  H       0.582453      1.783409      1.797220
  H       1.547022      2.912679      0.971270
  H       1.404558      1.716777     -0.981917
  H       2.611670      0.113433     -0.493748
  Cu      2.909929      0.620569      0.913120
18
Coordinates from ORCA-job orca E -1967.121005677212
  C      -1.750200     -0.729894     -1.363506
  C      -0.707328      0.183834     -1.262414
  C       0.156821      0.139823     -0.168412
  C      -0.030042     -0.829560      0.821030
  C      -1.063804     -1.745963      0.711802
  C      -1.925636     -1.698770     -0.381698
  H      -2.419894     -0.688348     -2.212216
  H      -2.726707     -2.420798     -0.469513
  H      -0.565581      0.933861     -2.030868
  H       0.652920     -0.887611      1.661071
  H      -1.187888     -2.508237      1.469956
  C       1.223251      1.161421     -0.073596
  N       1.298361      1.933227      1.108423
  H       0.595383      1.756849      1.812185
  H       1.537925      2.907937      0.989929
  H       1.390392      1.732624     -0.975946
  H       2.598768      0.129130     -0.519040
  Cu      2.923260      0.630474      0.882812
18
Coordinates from ORCA-job orca E -1967.121230163427
  C      -1.736823     -0.744045     -1.374975
  C      -0.696719      0.172542     -1.270728
  C       0.152002      0.144136     -0.163901
  C      -0.043979     -0.816191      0.831935
  C      -1.076231     -1.734245      0.721006
  C      -1.926367     -1.698956     -0.382397
  H      -2.396754     -0.711765     -2.231794
  H      -2.726189     -2.422291     -0.471550
  H      -0.547523      0.915380     -2.044680
  H       0.627668     -0.862640      1.682086
  H      -1.212679     -2.484494      1.488912
  C       1.214934      1.168782     -0.069118
  N       1.309406      1.916911      1.124756
  H       0.627028      1.715199      1.842208
  H       1.535039      2.896475      1.021582
  H       1.366400      1.755651     -0.963842
  H       2.589598      0.152044     -0.568390
  Cu      2.941190      0.637508      0.828887
18
Coordinates from ORCA-job orca E -1967.121568840382
  C      -1.717954     -0.767249     -1.392436
  C      -0.684026      0.156634     -1.286365
  C       0.142737      0.153744     -0.162665
  C      -0.070909     -0.785286      0.847546
  C      -1.096541     -1.710565      0.737353
  C      -1.922137     -1.704509     -0.385491
  H      -2.358113     -0.757890     -2.264748
  H      -2.723038     -2.427219     -0.471423
  H      -0.520813      0.882592     -2.073163
  H       0.587513     -0.802942      1.710375
  H      -1.242047     -2.448138      1.515779
  C       1.205929      1.178467     -0.063074
  N       1.334474      1.884748      1.154588
  H       0.678535      1.648060      1.885371
  H       1.542176      2.871114      1.079940
  H       1.327293      1.799163     -0.939031
  H       2.548937      0.193009     -0.642038
  Cu      2.967985      0.636268      0.749481
18
Coordinates from ORCA-job orca E -1967.121719462595
  C      -1.704451     -0.782036     -1.403482
  C      -0.674605      0.145979     -1.296310
  C       0.137185      0.159433     -0.161836
  C      -0.086034     -0.767944      0.856711
  C      -1.108015     -1.697027      0.746269
  C      -1.921986     -1.704213     -0.385154
  H      -2.336724     -0.782225     -2.281597
  H      -2.716267     -2.433712     -0.474845
  H      -0.502554      0.861798     -2.090553
  H       0.566284     -0.772439      1.724057
  H      -1.267486     -2.419310      1.536163
  C       1.197763      1.185486     -0.058460
  N       1.347947      1.865367      1.171618
  H       0.712868      1.604683      1.912864
  H       1.542743      2.855256      1.114665
  H       1.301086      1.826460     -0.922043
  H       2.529845      0.211833     -0.685357
  Cu      2.982400      0.642611      0.697290
18
Coordinates from ORCA-job orca E -1967.121803852717
  C      -1.697498     -0.788989     -1.408554
  C      -0.669276      0.140202     -1.299607
  C       0.132860      0.162763     -0.158324
  C      -0.095116     -0.761228      0.863246
  C      -1.116784     -1.690554      0.751237
  C      -1.921039     -1.705982     -0.386945
  H      -2.320617     -0.797832     -2.293187
  H      -2.717417     -2.433277     -0.476068
  H      -0.495147      0.854518     -2.094800
  H       0.550177     -0.760128      1.735305
  H      -1.280219     -2.410122      1.542755
  C       1.193350      1.188578     -0.055786
  N       1.356559      1.857572      1.178598
  H       0.735869      1.585137      1.927918
  H       1.542079      2.849590      1.128458
  H       1.285620      1.839284     -0.913539
  H       2.524547      0.220056     -0.708728
  Cu      2.992054      0.650413      0.668022
18
Coordinates from ORCA-job orca E -1967.121897008265
  C      -1.690958     -0.794771     -1.412712
  C      -0.664371      0.135499     -1.300675
  C       0.131566      0.163256     -0.154996
  C      -0.103073     -0.756893      0.869933
  C      -1.124004     -1.686851      0.754299
  C      -1.922141     -1.705930     -0.387953
  H      -2.311346     -0.804610     -2.299289
  H      -2.716318     -2.435317     -0.480174
  H      -0.482924      0.843701     -2.099666
  H       0.537058     -0.757560      1.745267
  H      -1.294512     -2.401623      1.548659
  C       1.190891      1.190625     -0.054040
  N       1.364940      1.852608      1.183521
  H       0.756580      1.571063      1.939391
  H       1.539030      2.847031      1.137633
  H       1.270231      1.850152     -0.906605
  H       2.515898      0.228550     -0.726210
  Cu      3.003455      0.661070      0.643616
18
Coordinates from ORCA-job orca E -1967.121969791760
  C      -1.682153     -0.803163     -1.418850
  C      -0.656290      0.127049     -1.303599
  C       0.127693      0.165247     -0.149766
  C      -0.114920     -0.749165      0.879197
  C      -1.135928     -1.678919      0.759737
  C      -1.922111     -1.707631     -0.390423
  H      -2.290088     -0.823486     -2.313867
  H      -2.717164     -2.435963     -0.483635
  H      -0.470372      0.832725     -2.103870
  H       0.509767     -0.744084      1.765199
  H      -1.313695     -2.388821      1.556879
  C       1.185447      1.193354     -0.050517
  N       1.378692      1.842316      1.191743
  H       0.791241      1.545882      1.958653
  H       1.535744      2.839860      1.153828
  H       1.247344      1.865142     -0.895081
  H       2.508060      0.245988     -0.759881
  Cu      3.018733      0.673668      0.604254
18
Coordinates from ORCA-job orca E -1967.122039232558
  C      -1.664558     -0.819809     -1.430479
  C      -0.643991      0.114833     -1.309160
  C       0.124005      0.168367     -0.144903
  C      -0.134300     -0.731341      0.893415
  C      -1.152657     -1.664024      0.768223
  C      -1.920943     -1.709435     -0.393145
  H      -2.262490     -0.848276     -2.332001
  H      -2.713690     -2.440060     -0.488691
  H      -0.440088      0.804278     -2.119132
  H       0.472811     -0.723721      1.791021
  H      -1.344965     -2.361205      1.573234
  C       1.176670      1.200084     -0.045379
  N       1.401586      1.822805      1.206478
  H       0.843981      1.501497      1.985341
  H       1.532241      2.824839      1.186080
  H       1.209116      1.894337     -0.873451
  H       2.477115      0.276416     -0.809741
  Cu      3.040158      0.690414      0.542290
18
Coordinates from ORCA-job orca E -1967.122050356309
  C      -1.655055     -0.829375     -1.436628
  C      -0.634900      0.104946     -1.313848
  C       0.119122      0.171801     -0.140951
  C      -0.146319     -0.720539      0.901197
  C      -1.164008     -1.654309      0.774101
  C      -1.921042     -1.710474     -0.393890
  H      -2.238646     -0.871290     -2.346966
  H      -2.712110     -2.442666     -0.490743
  H      -0.429844      0.794691     -2.123401
  H       0.446686     -0.704769      1.807924
  H      -1.365524     -2.342640      1.584461
  C       1.169153      1.204780     -0.041030
  N       1.414944      1.808750      1.214812
  H       0.877995      1.469867      2.001138
  H       1.531437      2.812574      1.207108
  H       1.188530      1.910422     -0.859781
  H       2.470033      0.299741     -0.847377
  Cu      3.049547      0.698490      0.503874
18
Coordinates from ORCA-job orca E -1967.122055381266
  C      -1.651515     -0.832605     -1.438581
  C      -0.634355      0.104447     -1.313819
  C       0.118830      0.172533     -0.140231
  C      -0.149800     -0.717362      0.903276
  C      -1.166955     -1.651927      0.775517
  C      -1.919842     -1.711860     -0.394728
  H      -2.236392     -0.872859     -2.348157
  H      -2.711620     -2.443332     -0.491382
  H      -0.422392      0.787515     -2.127204
  H       0.440822     -0.701253      1.811429
  H      -1.368113     -2.340612      1.585650
  C       1.167717      1.207200     -0.040616
  N       1.419290      1.806196      1.216410
  H       0.885747      1.463616      2.003162
  H       1.532431      2.810621      1.212067
  H       1.182409      1.916308     -0.856471
  H       2.461001      0.303688     -0.852520
  Cu      3.052738      0.699687      0.496197
18
Coordinates from ORCA-job orca E -1967.122065658343
  C      -1.644376     -0.839627     -1.442739
  C      -0.628451      0.097882     -1.316408
  C       0.115216      0.175188     -0.136900
  C      -0.160766     -0.708119      0.909837
  C      -1.174597     -1.646366      0.779088
  C      -1.919541     -1.713281     -0.395511
  H      -2.220779     -0.887470     -2.357343
  H      -2.708394     -2.447567     -0.494533
  H      -0.412474      0.778150     -2.131150
  H       0.422831     -0.688498      1.822369
  H      -1.383699     -2.327213      1.593794
  C       1.161173      1.212443     -0.037484
  N       1.430068      1.796976      1.221432
  H       0.911262      1.441584      2.012545
  H       1.534977      2.802268      1.227440
  H       1.166423      1.929258     -0.846601
  H       2.452112      0.320563     -0.877994
  Cu      3.059016      0.703831      0.470158
18
Coordinates from ORCA-job orca E -1967.122088636884
  C      -1.643531     -0.841063     -1.443408
  C      -0.629298      0.098267     -1.316659
  C       0.114204      0.176180     -0.137055
  C      -0.161272     -0.707281      0.909610
  C      -1.175628     -1.645012      0.779902
  C      -1.918763     -1.714196     -0.395731
  H      -2.220310     -0.889062     -2.357766
  H      -2.707638     -2.448514     -0.494492
  H      -0.412449      0.777232     -2.132229
  H       0.419672     -0.682910      1.823767
  H      -1.381994     -2.328055      1.593464
  C       1.160750      1.212808     -0.037577
  N       1.431291      1.795593      1.222020
  H       0.911822      1.440362      2.012658
  H       1.538565      2.800684      1.229322
  H       1.166102      1.930270     -0.846064
  H       2.449989      0.324999     -0.880122
  Cu      3.058489      0.699698      0.470362
18
Coordinates from ORCA-job orca E -1967.122075286404
  C      -1.645387     -0.839289     -1.442377
  C      -0.630799      0.099855     -1.316357
  C       0.114447      0.176151     -0.137848
  C      -0.159023     -0.708743      0.908216
  C      -1.173176     -1.646552      0.778946
  C      -1.918438     -1.714010     -0.395543
  H      -2.223731     -0.886268     -2.355797
  H      -2.707889     -2.447770     -0.493698
  H      -0.415362      0.779781     -2.131507
  H       0.424815     -0.685371      1.820500
  H      -1.378133     -2.330769      1.591877
  C       1.161059      1.212364     -0.038056
  N       1.428003      1.797834      1.220867
  H       0.905533      1.445620      2.010909
  H       1.539422      2.802402      1.226119
  H       1.169666      1.927753     -0.848352
  H       2.453814      0.320274     -0.875049
  Cu      3.055178      0.696738      0.477151
18
Coordinates from ORCA-job orca E -1967.122088333959
  C      -1.652803     -0.832657     -1.437769
  C      -0.636262      0.105152     -1.314196
  C       0.117231      0.174189     -0.140748
  C      -0.150347     -0.716331      0.902983
  C      -1.165062     -1.653314      0.775320
  C      -1.919085     -1.712794     -0.394198
  H      -2.238567     -0.873538     -2.346750
  H      -2.708733     -2.446485     -0.491739
  H      -0.426214      0.789023     -2.127344
  H       0.442362     -0.697725      1.809619
  H      -1.364166     -2.343008      1.585071
  C       1.165458      1.209368     -0.041898
  N       1.417811      1.806633      1.214876
  H       0.879253      1.468729      2.000044
  H       1.544288      2.809520      1.211489
  H       1.183731      1.917113     -0.858833
  H       2.464770      0.313574     -0.854147
  Cu      3.046337      0.682550      0.508220
18
Coordinates from ORCA-job orca E -1967.122093493470
  C      -1.656344     -0.828851     -1.435636
  C      -0.638299      0.107615     -1.313390
  C       0.119397      0.172838     -0.142526
  C      -0.144116     -0.720849      0.899352
  C      -1.160706     -1.655889      0.773387
  C      -1.919103     -1.711828     -0.393596
  H      -2.244353     -0.867985     -2.343244
  H      -2.710763     -2.443534     -0.489433
  H      -0.431516      0.794385     -2.124983
  H       0.452430     -0.705074      1.803729
  H      -1.357317     -2.347613      1.582018
  C       1.166506      1.208892     -0.043285
  N       1.411789      1.811201      1.212003
  H       0.867447      1.478207      1.995569
  H       1.543220      2.813200      1.204840
  H       1.189627      1.912127     -0.863750
  H       2.470169      0.303915     -0.842653
  Cu      3.041931      0.679241      0.521597
18
Coordinates from ORCA-job orca E -1967.122094521330
  C      -1.659611     -0.825927     -1.433689
  C      -0.641281      0.110398     -1.311975
  C       0.120144      0.172375     -0.143367
  C      -0.139618     -0.724388      0.896657
  C      -1.156587     -1.659114      0.771326
  C      -1.919578     -1.711155     -0.392889
  H      -2.251289     -0.861722     -2.339046
  H      -2.711005     -2.443145     -0.488431
  H      -0.437468      0.799826     -2.122050
  H       0.460701     -0.712068      1.798674
  H      -1.351326     -2.352278      1.579181
  C       1.168001      1.207819     -0.044852
  N       1.406633      1.815492      1.208764
  H       0.855826      1.488268      1.990210
  H       1.543516      2.816813      1.197812
  H       1.196918      1.905919     -0.869509
  H       2.478138      0.299512     -0.833416
  Cu      3.037887      0.673373      0.536601
18
Coordinates from ORCA-job orca E -1967.122100563639
  C      -1.660362     -0.825205     -1.433325
  C      -0.641611      0.110710     -1.312184
  C       0.120677      0.172188     -0.144087
  C      -0.138844     -0.724321      0.896070
  C      -1.156069     -1.658888      0.771228
  C      -1.919314     -1.711115     -0.392794
  H      -2.251753     -0.861559     -2.338844
  H      -2.711323     -2.442562     -0.487692
  H      -0.437924      0.800077     -2.122340
  H       0.461617     -0.712104      1.798016
  H      -1.349642     -2.352835      1.578691
  C       1.168081      1.207990     -0.045186
  N       1.406142      1.815655      1.208555
  H       0.854548      1.488552      1.989510
  H       1.542957      2.816967      1.197752
  H       1.197459      1.905827     -0.870007
  H       2.477527      0.298250     -0.831896
  Cu      3.037836      0.672372      0.538531
18
Coordinates from ORCA-job orca E -1967.122097991765
  C      -1.659529     -0.826022     -1.433844
  C      -0.641098      0.110152     -1.312389
  C       0.120236      0.172474     -0.143690
  C      -0.139734     -0.723730      0.896617
  C      -1.156848     -1.658436      0.771547
  C      -1.919455     -1.711124     -0.392836
  H      -2.250663     -0.862486     -2.339527
  H      -2.711007     -2.443013     -0.488115
  H      -0.436965      0.799224     -2.122693
  H       0.459975     -0.711173      1.799038
  H      -1.351329     -2.351557      1.579500
  C       1.167651      1.208241     -0.044847
  N       1.407153      1.814933      1.209046
  H       0.857138      1.486482      1.990576
  H       1.542360      2.816473      1.198975
  H       1.196271      1.906746     -0.869128
  H       2.476920      0.299362     -0.834126
  Cu      3.038923      0.673455      0.535896
18
Coordinates from ORCA-job orca E -1967.122110796821
  C      -1.659776     -0.825796     -1.433729
  C      -0.641249      0.110275     -1.312425
  C       0.120347      0.172449     -0.143871
  C      -0.139529     -0.723688      0.896466
  C      -1.156690     -1.658384      0.771507
  C      -1.919387     -1.711115     -0.392809
  H      -2.250769     -0.862477     -2.339496
  H      -2.711188     -2.442765     -0.487854
  H      -0.437211      0.799406     -2.122701
  H       0.460339     -0.711360      1.798794
  H      -1.350884     -2.351663      1.579393
  C       1.167600      1.208319     -0.044967
  N       1.406953      1.815020      1.208887
  H       0.856913      1.486415      1.990338
  H       1.541824      2.816615      1.198914
  H       1.196508      1.906648     -0.869372
  H       2.477105      0.298943     -0.833744
  Cu      3.039093      0.673159      0.536669
